time,e11,e22,e33,e12,e13,e23,s11,s22,s33,s12,s13,s23
0,0,0,0,0,0,0,0,0,0,0,0,0
11,-4.625e-05,-4.625e-05,0.00011,0,0,6.05687e-233,0,0,7.21869,0,0,0
21,-8.82955e-05,-8.82955e-05,0.00021,0,0,-2.61464e-232,0,0,13.781,0,0,0
30,-0.000126136,-0.000126136,0.0003,0,0,3.82519e-232,0,0,19.687,0,0,0
40,-0.000168182,-0.000168182,0.0004,0,0,2.21536e-232,0,0,26.2492,0,0,0
50,-0.000210227,-0.000210227,0.0005,0,0,2.21535e-232,0,0,32.8112,0,0,0
60,-0.000252273,-0.000252273,0.0006,0,0,-4.22287e-232,0,0,39.3732,0,0,0
70,-0.000294318,-0.000294318,0.0007,0,0,-7.44174e-232,0,0,45.935,0,0,0
80,-0.000336364,-0.000336364,0.0008,0,0,-1.06603e-231,0,0,52.4967,0,0,0
90,-0.000378409,-0.000378409,0.0009,0,0,-1.22695e-231,0,0,59.0583,0,0,0
100,-0.000420455,-0.000420455,0.001,0,0,-1.06604e-231,0,0,65.6198,0,0,0
110,-0.0004625,-0.0004625,0.0011,0,0,-9.0515e-232,0,0,72.1812,0,0,0
120,-0.000504545,-0.000504545,0.0012,0,0,1.82955e-231,0,0,78.7425,0,0,0
130,-0.000546591,-0.000546591,0.0013,2.25676e-297,0,-3.85173e-180,0,0,85.3037,0,0,0
140,-0.000589637,-0.000589637,0.0014,-5.98127e-17,5.98599e-17,1.63572e-19,0,0,91.0397,0,0,0
150,-0.000639428,-0.000639428,0.0015,-1.40486e-16,-8.52877e-17,3.76725e-16,0,0,91.2115,0,0,0
160,-0.00068922,-0.00068922,0.0016,5.84495e-16,-5.30033e-16,3.41753e-16,0,0,91.3833,0,0,0
170,-0.000739014,-0.000739014,0.0017,4.64458e-16,-7.46344e-16,3.61563e-16,0,0,91.5532,0,0,0
180,-0.000788817,-0.000788817,0.0018,-1.2582e-16,-6.21241e-16,2.97956e-16,0,0,91.7161,0,0,0
190,-0.0008386,-0.0008386,0.0019,5.14233e-16,-1.14718e-15,-2.50321e-16,0,0,91.8945,0,0,0
200,-0.000888391,-0.000888391,0.002,3.71323e-16,-8.63948e-16,1.60789e-16,0,0,92.067,0,0,0
210,-0.000938182,-0.000938182,0.0021,3.92676e-16,-8.77988e-16,5.72872e-16,0,0,92.2396,0,0,0
220,-0.000987974,-0.000987974,0.0022,7.89649e-16,-2.00829e-15,9.76235e-16,0,0,92.4111,0,0,0
230,-0.00103777,-0.00103777,0.0023,8.41018e-16,-2.45103e-15,6.26665e-16,0,0,92.5793,0,0,0
240,-0.00108756,-0.00108756,0.0024,8.25238e-16,-2.30689e-15,6.2878e-16,0,0,92.7548,0,0,0
250,-0.00113735,-0.00113735,0.0025,-6.96179e-17,-2.93459e-15,2.6316e-16,0,0,92.9267,0,0,0
260,-0.00118714,-0.00118714,0.0026,-1.94787e-16,-2.9434e-15,-9.94022e-18,0,0,93.0979,0,0,0
270.667,-0.00124026,-0.00124026,0.00270667,-9.40081e-16,-3.37331e-15,-6.70297e-16,0,0,93.2768,0,0,0
280.667,-0.00129005,-0.00129005,0.00280667,-8.66634e-16,-3.73616e-15,-2.18411e-16,0,0,93.4483,0,0,0
290.667,-0.00133984,-0.00133984,0.00290667,-4.19011e-16,-3.73e-15,-5.95623e-16,0,0,93.6189,0,0,0
300.667,-0.00138964,-0.00138964,0.00300667,-1.02937e-15,-4.54079e-15,-9.25593e-16,0,0,93.79,0,0,0
310.667,-0.00143943,-0.00143943,0.00310667,-3.71e-17,-4.62432e-15,-7.08344e-16,0,0,93.9599,0,0,0
320.667,-0.00148923,-0.00148923,0.00320667,-1.76521e-16,-4.38026e-15,-1.07323e-15,0,0,94.1269,0,0,0
331,-0.0015407,-0.0015407,0.00331,-1.08577e-15,-4.75378e-15,-7.2166e-16,0,0,94.2855,0,0,0
341,-0.00159049,-0.00159049,0.00341,-9.78878e-16,-5.1889e-15,-1.01123e-15,0,0,94.4625,0,0,0
351,-0.00164028,-0.00164028,0.00351,-4.34409e-16,-4.7581e-15,-1.67242e-15,0,0,94.6341,0,0,0
361,-0.00169007,-0.00169007,0.00361,-5.72256e-16,-4.89438e-15,-2.25767e-15,0,0,94.8063,0,0,0
370.667,-0.0017382,-0.0017382,0.00370667,-1.29592e-15,-4.67662e-15,-2.24516e-15,0,0,94.9774,0,0,0
380.667,-0.00178799,-0.00178799,0.00380667,-2.36119e-15,-4.31388e-15,-1.82758e-15,0,0,95.1493,0,0,0
391,-0.00183945,-0.00183945,0.00391,-2.7077e-15,-3.97997e-15,-1.79154e-15,0,0,95.3217,0,0,0
400.132,-0.0018849,-0.0018849,0.00400132,-2.64491e-15,-3.75788e-15,-1.72224e-15,0,0,95.489,0,0,0
410.679,-0.00193742,-0.00193742,0.00410679,-3.76637e-15,-4.95779e-15,-1.84116e-15,0,0,95.6657,0,0,0
420.667,-0.00198715,-0.00198715,0.00420667,-3.97613e-15,-4.25289e-15,-1.69743e-15,0,0,95.8368,0,0,0
431,-0.00203861,-0.00203861,0.00431,-3.43659e-15,-3.27594e-15,-1.73025e-15,0,0,96.0094,0,0,0
440.132,-0.00208407,-0.00208407,0.00440132,-3.46708e-15,-3.43124e-15,-1.49504e-15,0,0,96.1765,0,0,0
451,-0.0021382,-0.0021382,0.00451,-3.39182e-15,-2.88528e-15,-1.41651e-15,0,0,96.3528,0,0,0
461,-0.00218799,-0.00218799,0.00461,-3.47317e-15,-2.78877e-15,-1.0306e-15,0,0,96.5249,0,0,0
471,-0.00223778,-0.00223778,0.00471,-3.56975e-15,-3.19864e-15,-6.61583e-16,0,0,96.6964,0,0,0
480.296,-0.00228405,-0.00228405,0.00480296,-2.67346e-15,-3.20159e-15,-6.7333e-16,0,0,96.8677,0,0,0
491,-0.00233736,-0.00233736,0.00491,-2.73552e-15,-3.40962e-15,-1.30937e-15,0,0,97.04,0,0,0
500.556,-0.00238493,-0.00238493,0.00500556,-2.52433e-15,-3.5211e-15,-2.02636e-15,0,0,97.2119,0,0,0
511,-0.00243695,-0.00243695,0.00511,-2.17679e-15,-3.69059e-15,-1.5032e-15,0,0,97.3834,0,0,0
520.667,-0.00248507,-0.00248507,0.00520667,-2.13282e-15,-3.14952e-15,-1.07071e-15,0,0,97.5552,0,0,0
530.556,-0.00253431,-0.00253431,0.00530556,-2.20675e-15,-4.08149e-15,-2.36696e-16,0,0,97.7269,0,0,0
541,-0.00258632,-0.00258632,0.00541,-2.59834e-15,-4.21297e-15,-2.7293e-16,0,0,97.8984,0,0,0
551,-0.00263611,-0.00263611,0.00551,-3.81632e-15,-4.09137e-15,-3.40373e-16,0,0,98.0703,0,0,0
561,-0.0026859,-0.0026859,0.00561,-3.12818e-15,-3.8042e-15,-6.82917e-16,0,0,98.2419,0,0,0
571,-0.0027357,-0.0027357,0.00571,-3.58135e-15,-3.68735e-15,-6.8248e-16,0,0,98.4131,0,0,0
580.556,-0.00278327,-0.00278327,0.00580556,-3.2463e-15,-3.94037e-15,-1.01636e-15,0,0,98.5848,0,0,0
590.667,-0.00283362,-0.00283362,0.00590667,-2.76367e-15,-4.0099e-15,-1.37095e-15,0,0,98.7557,0,0,0
600.667,-0.00288341,-0.00288341,0.00600667,-2.92937e-15,-3.78549e-15,-8.80199e-16,0,0,98.9272,0,0,0
611,-0.00293487,-0.00293487,0.00611,-3.00854e-15,-4.03296e-15,-9.50425e-16,0,0,99.099,0,0,0
621,-0.00298466,-0.00298466,0.00621,-3.40657e-15,-3.5642e-15,-5.64563e-16,0,0,99.2703,0,0,0
631,-0.00303445,-0.00303445,0.00631,-3.97466e-15,-3.14181e-15,-7.56655e-16,0,0,99.4416,0,0,0
641,-0.00308424,-0.00308424,0.00641,-4.38532e-15,-2.79289e-15,-1.06719e-15,0,0,99.6128,0,0,0
651,-0.00313404,-0.00313404,0.00651,-4.16924e-15,-2.1767e-15,-1.31444e-15,0,0,99.7841,0,0,0
661,-0.00318383,-0.00318383,0.00661,-4.54357e-15,-2.30004e-15,-1.75854e-15,0,0,99.9551,0,0,0
671,-0.00323362,-0.00323362,0.00671,-4.36103e-15,-1.74957e-15,-2.00745e-15,0,0,100.126,0,0,0
681,-0.00328341,-0.00328341,0.00681,-4.41834e-15,-1.08437e-15,-2.55324e-15,0,0,100.297,0,0,0
691,-0.00333321,-0.00333321,0.00691,-4.60381e-15,-1.49405e-15,-2.36909e-15,0,0,100.468,0,0,0
701,-0.003383,-0.003383,0.00701,-4.41967e-15,-1.65623e-15,-2.38711e-15,0,0,100.639,0,0,0
711,-0.00343279,-0.00343279,0.00711,-3.79049e-15,-1.91716e-15,-2.78502e-15,0,0,100.81,0,0,0
721,-0.00348258,-0.00348258,0.00721,-3.38284e-15,-1.86009e-15,-3.06e-15,0,0,100.98,0,0,0
731,-0.00353238,-0.00353238,0.00731,-3.89977e-15,-2.67854e-15,-2.28439e-15,0,0,101.149,0,0,0
740.11,-0.00357772,-0.00357772,0.0074011,-3.92896e-15,-3.36805e-15,-2.19894e-15,0,0,101.318,0,0,0
751,-0.00363197,-0.00363197,0.00751,-4.04057e-15,-2.81681e-15,-2.12598e-15,0,0,101.49,0,0,0
761,-0.00368176,-0.00368176,0.00761,-3.25607e-15,-2.47976e-15,-1.8768e-15,0,0,101.659,0,0,0
771,-0.00373156,-0.00373156,0.00771,-3.31022e-15,-2.1298e-15,-1.70901e-15,0,0,101.828,0,0,0
781,-0.00378135,-0.00378135,0.00781,-3.44399e-15,-2.12606e-15,-1.63534e-15,0,0,101.997,0,0,0
791,-0.00383115,-0.00383115,0.00791,-3.28719e-15,-1.99019e-15,-2.18033e-15,0,0,102.166,0,0,0
801,-0.00388094,-0.00388094,0.00801,-4.33023e-15,-1.42036e-15,-1.34962e-15,0,0,102.337,0,0,0
811,-0.00393073,-0.00393073,0.00811,-5.62668e-15,-1.12142e-15,-1.57013e-15,0,0,102.507,0,0,0
821,-0.00398053,-0.00398053,0.00821,-4.72848e-15,-1.40204e-15,-1.70217e-15,0,0,102.678,0,0,0
831,-0.00403032,-0.00403032,0.00831,-4.96038e-15,-1.51467e-15,-2.05239e-15,0,0,102.849,0,0,0
840.556,-0.00407789,-0.00407789,0.00840556,-4.4968e-15,-1.96403e-15,-2.33091e-15,0,0,103.019,0,0,0
850.556,-0.00412768,-0.00412768,0.00850556,-3.15715e-15,-3.15661e-15,-2.13658e-15,0,0,103.19,0,0,0
861,-0.0041797,-0.0041797,0.00861,-3.61944e-15,-2.89579e-15,-2.47259e-15,0,0,103.36,0,0,0
871,-0.00422949,-0.00422949,0.00871,-4.47915e-15,-2.39533e-15,-2.36409e-15,0,0,103.53,0,0,0
880.556,-0.00427707,-0.00427707,0.00880556,-3.81751e-15,-2.82414e-15,-2.32493e-15,0,0,103.699,0,0,0
891,-0.00432908,-0.00432908,0.00891,-5.37931e-15,-2.5617e-15,-1.77325e-15,0,0,103.869,0,0,0
900.247,-0.00437511,-0.00437511,0.00900247,-4.79079e-15,-2.54813e-15,-1.45975e-15,0,0,104.039,0,0,0
911,-0.00442867,-0.00442867,0.00911,-5.42741e-15,-2.38574e-15,-2.30058e-15,0,0,104.209,0,0,0
921,-0.00447846,-0.00447846,0.00921,-4.46036e-15,-2.18124e-15,-2.38618e-15,0,0,104.381,0,0,0
931,-0.00452826,-0.00452826,0.00931,-5.01683e-15,-1.58548e-15,-1.78811e-15,0,0,104.551,0,0,0
941,-0.00457805,-0.00457805,0.00941,-6.00877e-15,-1.24961e-15,-1.67496e-15,0,0,104.723,0,0,0
951,-0.00462785,-0.00462785,0.00951,-6.22475e-15,-1.07339e-15,-1.79254e-15,0,0,104.89,0,0,0
961,-0.00467764,-0.00467764,0.00961,-7.52828e-15,-9.11273e-16,-2.05895e-15,0,0,105.062,0,0,0
971,-0.00472742,-0.00472742,0.00971,-7.89983e-15,-1.77955e-15,-1.60975e-15,0,0,105.236,0,0,0
981,-0.00477722,-0.00477722,0.00981,-7.63816e-15,-2.1803e-15,-9.13558e-16,0,0,105.406,0,0,0
990.296,-0.0048235,-0.0048235,0.00990296,-7.30282e-15,-1.49657e-15,-6.95277e-16,0,0,105.574,0,0,0
1001,-0.00487681,-0.00487681,0.01001,-7.67865e-15,-9.31437e-16,-9.74518e-16,0,0,105.745,0,0,0
1011,-0.0049266,-0.0049266,0.01011,-6.74578e-15,-1.08647e-15,-9.80106e-16,0,0,105.914,0,0,0
1020.44,-0.00497362,-0.00497362,0.0102044,-6.98935e-15,-2.07279e-15,-1.47333e-15,0,0,106.083,0,0,0
1030.44,-0.00502342,-0.00502342,0.0103044,-7.42152e-15,-1.72184e-15,-1.17593e-15,0,0,106.252,0,0,0
1040.44,-0.00507321,-0.00507321,0.0104044,-6.74551e-15,-1.77537e-15,-1.70176e-15,0,0,106.422,0,0,0
1051,-0.00512578,-0.00512578,0.01051,-5.46577e-15,-1.99298e-15,-2.17317e-15,0,0,106.592,0,0,0
1060.44,-0.0051728,-0.0051728,0.0106044,-5.63999e-15,-2.47054e-15,-1.93625e-15,0,0,106.76,0,0,0
1071,-0.00522537,-0.00522537,0.01071,-3.55698e-15,-2.27477e-15,-1.18965e-15,0,0,106.93,0,0,0
1080.25,-0.0052714,-0.0052714,0.0108025,-3.18921e-15,-2.69438e-15,-1.66212e-15,0,0,107.099,0,0,0
1090.25,-0.0053212,-0.0053212,0.0109025,-3.4092e-15,-2.43512e-15,-1.58393e-15,0,0,107.268,0,0,0
1101,-0.00537476,-0.00537476,0.01101,-3.88614e-15,-2.17863e-15,-1.38286e-15,0,0,107.437,0,0,0
1110.26,-0.00542084,-0.00542084,0.0111026,-4.18549e-15,-2.11981e-15,-1.83729e-15,0,0,107.606,0,0,0
1121,-0.00547435,-0.00547435,0.01121,-3.50617e-15,-1.99471e-15,-2.14043e-15,0,0,107.774,0,0,0
1130.56,-0.00552192,-0.00552192,0.0113056,-3.56167e-15,-2.30986e-15,-2.42765e-15,0,0,107.943,0,0,0
1141,-0.00557394,-0.00557394,0.01141,-3.40966e-15,-1.84929e-15,-1.6314e-15,0,0,108.11,0,0,0
1151,-0.00562374,-0.00562374,0.01151,-2.54117e-15,-1.2101e-15,-1.315e-15,0,0,108.277,0,0,0
1161,-0.00567353,-0.00567353,0.01161,-3.63843e-15,-3.7222e-16,-1.46062e-15,0,0,108.446,0,0,0
1170.44,-0.00572055,-0.00572055,0.0117044,-4.52235e-15,1.56489e-16,-1.26926e-15,0,0,108.614,0,0,0
1181,-0.00577312,-0.00577312,0.01181,-4.86631e-15,-2.7846e-16,-6.78827e-16,0,0,108.784,0,0,0
1191,-0.00582292,-0.00582292,0.01191,-4.00975e-15,1.65823e-16,-4.4527e-16,0,0,108.954,0,0,0
1201,-0.00587271,-0.00587271,0.01201,-3.98737e-15,-2.11147e-16,-3.07226e-16,0,0,109.122,0,0,0
1211,-0.00592251,-0.00592251,0.01211,-4.10103e-15,1.63943e-16,-4.71352e-17,0,0,109.291,0,0,0
1221,-0.00597231,-0.00597231,0.01221,-4.30856e-15,1.01385e-15,-7.14049e-16,0,0,109.459,0,0,0
1231,-0.0060221,-0.0060221,0.01231,-4.20108e-15,7.28516e-16,-4.61472e-16,0,0,109.627,0,0,0
1241,-0.0060719,-0.0060719,0.01241,-4.31673e-15,1.02915e-15,-5.88754e-16,0,0,109.795,0,0,0
1251,-0.00612169,-0.00612169,0.01251,-4.65603e-15,1.71897e-15,-3.93559e-16,0,0,109.963,0,0,0
1261,-0.00617149,-0.00617149,0.01261,-4.9156e-15,2.68626e-15,1.96444e-16,0,0,110.131,0,0,0
1271,-0.00622129,-0.00622129,0.01271,-4.2796e-15,2.67025e-15,-9.8499e-16,0,0,110.298,0,0,0
1281,-0.00627108,-0.00627108,0.01281,-4.22808e-15,3.50093e-15,-1.46545e-15,0,0,110.466,0,0,0
1291,-0.00632088,-0.00632088,0.01291,-3.97307e-15,4.279e-15,-1.29558e-15,0,0,110.633,0,0,0
1301,-0.00637068,-0.00637068,0.01301,-4.78515e-15,4.324e-15,-1.31886e-15,0,0,110.801,0,0,0
1311,-0.00642047,-0.00642047,0.01311,-5.3503e-15,3.53885e-15,-1.84384e-15,0,0,110.968,0,0,0
1321,-0.00647027,-0.00647027,0.01321,-6.42217e-15,3.35128e-15,-2.27717e-15,0,0,111.136,0,0,0
1330.44,-0.00651729,-0.00651729,0.0133044,-7.35882e-15,2.97375e-15,-2.19535e-15,0,0,111.302,0,0,0
1341,-0.00656987,-0.00656987,0.01341,-8.60066e-15,3.12717e-15,-1.88257e-15,0,0,111.47,0,0,0
1351,-0.00661966,-0.00661966,0.01351,-9.17336e-15,3.145e-15,-1.54178e-15,0,0,111.637,0,0,0
1360.44,-0.00666668,-0.00666668,0.0136044,-8.65288e-15,3.13376e-15,-1.2815e-15,0,0,111.803,0,0,0
1371,-0.00671926,-0.00671926,0.01371,-9.06675e-15,3.61473e-15,-8.72243e-16,0,0,111.971,0,0,0
1380.44,-0.00676628,-0.00676628,0.0138044,-9.34508e-15,5.01577e-15,1.11372e-16,0,0,112.137,0,0,0
1390.56,-0.00681663,-0.00681663,0.0139056,-9.86732e-15,5.25596e-15,2.3586e-16,0,0,112.305,0,0,0
1401,-0.00686865,-0.00686865,0.01401,-1.05403e-14,5.41393e-15,4.611e-16,0,0,112.472,0,0,0
1411,-0.00691845,-0.00691845,0.01411,-1.05773e-14,5.25138e-15,7.34498e-16,0,0,112.638,0,0,0
1421,-0.00696825,-0.00696825,0.01421,-1.04716e-14,4.57442e-15,1.12866e-15,0,0,112.804,0,0,0
1430.67,-0.00701638,-0.00701638,0.0143067,-1.10626e-14,3.95694e-15,1.28296e-15,0,0,112.97,0,0,0
1441,-0.00706785,-0.00706785,0.01441,-9.99534e-15,3.61069e-15,1.64388e-15,0,0,113.137,0,0,0
1451,-0.00711764,-0.00711764,0.01451,-1.04408e-14,2.90566e-15,3.15958e-16,0,0,113.303,0,0,0
1460.37,-0.00716429,-0.00716429,0.0146037,-1.14474e-14,3.08855e-15,-8.8894e-17,0,0,113.47,0,0,0
1470.56,-0.00721502,-0.00721502,0.0147056,-1.22438e-14,3.40074e-15,2.82128e-16,0,0,113.636,0,0,0
1480.8,-0.00726605,-0.00726605,0.014808,-1.2381e-14,3.01688e-15,1.46324e-16,0,0,113.802,0,0,0
1491,-0.00731684,-0.00731684,0.01491,-1.23181e-14,2.73118e-15,6.02419e-16,0,0,113.968,0,0,0
1500.67,-0.00736497,-0.00736497,0.0150067,-1.27443e-14,2.73401e-15,2.21159e-16,0,0,114.134,0,0,0
1511,-0.00741644,-0.00741644,0.01511,-1.23263e-14,2.65971e-15,-9.30012e-17,0,0,114.3,0,0,0
1520.44,-0.00746346,-0.00746346,0.0152044,-1.16618e-14,2.26203e-15,1.14595e-15,0,0,114.465,0,0,0
1530.44,-0.00751326,-0.00751326,0.0153044,-1.19036e-14,1.76045e-15,1.43132e-15,0,0,114.63,0,0,0
1541,-0.00756583,-0.00756583,0.01541,-1.30897e-14,1.85238e-15,1.31888e-15,0,0,114.796,0,0,0
1550.8,-0.00761465,-0.00761465,0.015508,-1.32405e-14,1.50286e-15,9.18133e-16,0,0,114.962,0,0,0
1561,-0.00766543,-0.00766543,0.01561,-1.30226e-14,1.50334e-15,8.9337e-16,0,0,115.127,0,0,0
1571,-0.00771523,-0.00771523,0.01571,-1.26e-14,1.42062e-15,1.02166e-15,0,0,115.292,0,0,0
1581,-0.00776503,-0.00776503,0.01581,-1.30422e-14,1.16433e-15,9.77592e-16,0,0,115.457,0,0,0
1591,-0.00781483,-0.00781483,0.01591,-1.28144e-14,6.66429e-16,1.0327e-15,0,0,115.623,0,0,0
1600.67,-0.00786297,-0.00786297,0.0160067,-1.22722e-14,2.95132e-16,1.78123e-15,0,0,115.787,0,0,0
1611,-0.00791443,-0.00791443,0.01611,-1.22091e-14,-6.02815e-16,1.58892e-15,0,0,115.953,0,0,0
1621,-0.00796423,-0.00796423,0.01621,-1.26735e-14,-2.71253e-16,1.57951e-15,0,0,116.118,0,0,0
1631,-0.00801403,-0.00801403,0.01631,-1.36255e-14,6.46585e-17,1.76677e-15,0,0,116.283,0,0,0
1641,-0.00806384,-0.00806383,0.01641,-1.37386e-14,2.52086e-17,1.46641e-15,0,0,116.445,0,0,0
1651,-0.00811364,-0.00811364,0.01651,-1.38669e-14,-3.24651e-16,1.35963e-15,0,0,116.609,0,0,0
1661,-0.00816344,-0.00816344,0.01661,-1.35273e-14,-4.71369e-16,1.75473e-15,0,0,116.774,0,0,0
1671,-0.00821324,-0.00821324,0.01671,-1.45306e-14,-1.01812e-15,2.17638e-15,0,0,116.938,0,0,0
1681,-0.00826304,-0.00826304,0.01681,-1.35734e-14,-8.95767e-16,1.85391e-15,0,0,117.103,0,0,0
1691,-0.00831284,-0.00831284,0.01691,-1.28281e-14,-1.50956e-15,1.43846e-15,0,0,117.267,0,0,0
1701,-0.00836264,-0.00836264,0.01701,-1.29681e-14,-1.53679e-15,2.16352e-15,0,0,117.431,0,0,0
1710.67,-0.00841078,-0.00841078,0.0171067,-1.27804e-14,-1.65689e-15,2.45083e-15,0,0,117.593,0,0,0
1721,-0.00846224,-0.00846224,0.01721,-1.3261e-14,-1.85301e-15,2.77677e-15,0,0,117.759,0,0,0
1731,-0.00851204,-0.00851204,0.01731,-1.33328e-14,-2.06283e-15,2.77519e-15,0,0,117.923,0,0,0
1741,-0.00856184,-0.00856184,0.01741,-1.26378e-14,-1.86628e-15,3.04713e-15,0,0,118.087,0,0,0
1751,-0.00861165,-0.00861165,0.01751,-1.19083e-14,-1.77551e-15,3.35333e-15,0,0,118.25,0,0,0
1761,-0.00866145,-0.00866145,0.01761,-1.17538e-14,-1.89217e-15,2.44054e-15,0,0,118.414,0,0,0
1771,-0.00871125,-0.00871125,0.01771,-1.06837e-14,-2.1223e-15,2.73201e-15,0,0,118.577,0,0,0
1781,-0.00876105,-0.00876105,0.01781,-1.05755e-14,-2.30393e-15,3.67337e-15,0,0,118.74,0,0,0
1791,-0.00881085,-0.00881085,0.01791,-1.02115e-14,-2.43045e-15,3.37217e-15,0,0,118.904,0,0,0
1801,-0.00886066,-0.00886065,0.01801,-1.02643e-14,-2.82325e-15,3.86904e-15,0,0,119.067,0,0,0
1811,-0.00891046,-0.00891046,0.01811,-1.02973e-14,-2.77555e-15,3.63484e-15,0,0,119.231,0,0,0
1821,-0.00896026,-0.00896026,0.01821,-9.84734e-15,-2.81241e-15,3.55655e-15,0,0,119.394,0,0,0
1831,-0.00901006,-0.00901006,0.01831,-1.03022e-14,-2.51879e-15,3.3496e-15,0,0,119.557,0,0,0
1841,-0.00905987,-0.00905986,0.01841,-1.06339e-14,-2.43982e-15,3.32661e-15,0,0,119.719,0,0,0
1851,-0.00910967,-0.00910967,0.01851,-1.06718e-14,-2.52974e-15,3.6851e-15,0,0,119.882,0,0,0
1861,-0.00915947,-0.00915947,0.01861,-1.07778e-14,-2.47109e-15,3.54408e-15,0,0,120.045,0,0,0
1870.44,-0.00920649,-0.00920649,0.0187044,-1.05498e-14,-2.22955e-15,3.45944e-15,0,0,120.211,0,0,0
1881,-0.00925907,-0.00925906,0.01881,-1.04907e-14,-2.81015e-15,3.98866e-15,0,0,120.379,0,0,0
1891,-0.00930887,-0.00930887,0.01891,-9.82482e-15,-2.77424e-15,3.67541e-15,0,0,120.541,0,0,0
1901,-0.00935867,-0.00935867,0.01901,-9.99973e-15,-2.69044e-15,2.76434e-15,0,0,120.704,0,0,0
1910.45,-0.00940574,-0.00940573,0.0191045,-1.01708e-14,-2.52186e-15,2.92362e-15,0,0,120.868,0,0,0
1921,-0.00945827,-0.00945827,0.01921,-1.00433e-14,-2.40113e-15,2.57989e-15,0,0,121.033,0,0,0
1931,-0.00950808,-0.00950808,0.01931,-1.02633e-14,-2.45605e-15,3.33801e-15,0,0,121.194,0,0,0
1941,-0.00955788,-0.00955788,0.01941,-1.0847e-14,-2.2591e-15,3.07478e-15,0,0,121.357,0,0,0
1951,-0.00960768,-0.00960768,0.01951,-1.01885e-14,-1.86032e-15,2.62607e-15,0,0,121.52,0,0,0
1961,-0.00965749,-0.00965748,0.01961,-1.06424e-14,-1.41668e-15,2.35128e-15,0,0,121.682,0,0,0
1971,-0.00970729,-0.00970729,0.01971,-1.10981e-14,-2.23774e-15,2.78405e-15,0,0,121.843,0,0,0
1980.67,-0.00975543,-0.00975543,0.0198067,-1.13809e-14,-1.91289e-15,2.70157e-15,0,0,122.004,0,0,0
1991,-0.0098069,-0.0098069,0.01991,-1.03075e-14,-1.23703e-15,2.74795e-15,0,0,122.167,0,0,0
2001,-0.0098567,-0.0098567,0.02001,-1.0798e-14,-8.56317e-16,3.03321e-15,0,0,122.328,0,0,0
2011,-0.00990651,-0.00990651,0.02011,-1.12756e-14,-1.26004e-15,3.28568e-15,0,0,122.489,0,0,0
2021,-0.00995631,-0.00995631,0.02021,-1.11474e-14,-6.65909e-16,3.56199e-15,0,0,122.65,0,0,0
2031,-0.0100061,-0.0100061,0.02031,-1.12465e-14,-3.85316e-16,3.46957e-15,0,0,122.812,0,0,0
2041,-0.0100559,-0.0100559,0.02041,-1.11169e-14,-6.21427e-16,4.29962e-15,0,0,122.973,0,0,0
2051,-0.0101057,-0.0101057,0.02051,-1.13281e-14,-9.41629e-16,4.22398e-15,0,0,123.134,0,0,0
2061,-0.0101555,-0.0101555,0.02061,-1.10504e-14,-9.64435e-16,4.35555e-15,0,0,123.294,0,0,0
2070.67,-0.0102037,-0.0102037,0.0207067,-1.07436e-14,-7.91872e-16,4.12874e-15,0,0,123.454,0,0,0
2081,-0.0102551,-0.0102551,0.02081,-1.06415e-14,-8.4389e-16,3.99103e-15,0,0,123.616,0,0,0
2091,-0.0103049,-0.0103049,0.02091,-1.08274e-14,-5.19579e-16,4.25829e-15,0,0,123.776,0,0,0
2100.67,-0.0103531,-0.0103531,0.0210067,-1.05616e-14,-2.84959e-16,3.96064e-15,0,0,123.936,0,0,0
2111,-0.0104046,-0.0104046,0.02111,-1.18249e-14,-1.11361e-16,3.77812e-15,0,0,124.096,0,0,0
2120.92,-0.010454,-0.010454,0.0212092,-1.16959e-14,-1.40336e-16,3.71159e-15,0,0,124.256,0,0,0
2131,-0.0105042,-0.0105042,0.02131,-1.10243e-14,-3.53244e-16,3.9105e-15,0,0,124.416,0,0,0
2140.37,-0.0105508,-0.0105508,0.0214037,-1.05773e-14,-2.12824e-16,4.17627e-15,0,0,124.575,0,0,0
2151,-0.0106038,-0.0106038,0.02151,-1.09689e-14,2.60631e-18,4.27388e-15,0,0,124.736,0,0,0
2160.67,-0.0106519,-0.0106519,0.0216067,-1.08631e-14,2.74288e-16,4.03836e-15,0,0,124.898,0,0,0
2170.44,-0.0107006,-0.0107006,0.0217044,-1.1156e-14,7.14403e-16,3.99453e-15,0,0,125.057,0,0,0
2181,-0.0107532,-0.0107532,0.02181,-1.17758e-14,1.18582e-15,3.77798e-15,0,0,125.217,0,0,0
2190.68,-0.0108014,-0.0108014,0.0219068,-1.20212e-14,1.376e-15,3.68912e-15,0,0,125.377,0,0,0
2200.67,-0.0108511,-0.0108511,0.0220067,-1.1447e-14,1.40072e-15,3.80748e-15,0,0,125.535,0,0,0
2210.44,-0.0108998,-0.0108998,0.0221044,-1.14322e-14,1.13121e-15,3.81937e-15,0,0,125.694,0,0,0
2220.67,-0.0109508,-0.0109508,0.0222067,-1.13456e-14,1.28083e-15,3.60818e-15,0,0,125.855,0,0,0
2230.67,-0.0110006,-0.0110006,0.0223067,-1.15478e-14,8.2113e-16,3.86433e-15,0,0,126.012,0,0,0
2241,-0.011052,-0.011052,0.02241,-1.18102e-14,1.08059e-15,3.73669e-15,0,0,126.171,0,0,0
2250.67,-0.0111002,-0.0111002,0.0225067,-1.07282e-14,7.2135e-16,2.84338e-15,0,0,126.329,0,0,0
2260.43,-0.0111488,-0.0111488,0.0226043,-1.03063e-14,3.33247e-16,2.42529e-15,0,0,126.488,0,0,0
2271,-0.0112015,-0.0112015,0.02271,-9.38091e-15,7.48699e-17,2.48843e-15,0,0,126.647,0,0,0
2280.44,-0.0112485,-0.0112485,0.0228044,-8.80681e-15,1.88154e-16,2.90876e-15,0,0,126.803,0,0,0
2291,-0.0113011,-0.0113011,0.02291,-8.71174e-15,-6.92331e-17,2.81494e-15,0,0,126.962,0,0,0
2300.44,-0.0113481,-0.0113481,0.0230044,-8.30005e-15,5.98449e-17,2.52548e-15,0,0,127.119,0,0,0
2310.44,-0.0113979,-0.0113979,0.0231044,-8.00521e-15,-2.00995e-16,2.16086e-15,0,0,127.277,0,0,0
2320.44,-0.0114477,-0.0114477,0.0232044,-8.57199e-15,7.34195e-17,2.46051e-15,0,0,127.435,0,0,0
2331,-0.0115003,-0.0115003,0.02331,-7.9836e-15,-9.05875e-17,2.67163e-15,0,0,127.593,0,0,0
2340.44,-0.0115474,-0.0115473,0.0234044,-8.35593e-15,3.72356e-16,2.38327e-15,0,0,127.75,0,0,0
2350.44,-0.0115972,-0.0115972,0.0235044,-8.11489e-15,1.64516e-16,2.33953e-15,0,0,127.909,0,0,0
2360.67,-0.0116481,-0.0116481,0.0236067,-8.76909e-15,1.49287e-16,2.6226e-15,0,0,128.065,0,0,0
2370.56,-0.0116973,-0.0116973,0.0237056,-9.64296e-15,3.33029e-16,2.71243e-15,0,0,128.224,0,0,0
2381,-0.0117494,-0.0117494,0.02381,-1.03816e-14,1.19265e-16,2.30962e-15,0,0,128.38,0,0,0
2390.27,-0.0117955,-0.0117955,0.0239027,-1.01193e-14,3.18511e-16,2.08995e-15,0,0,128.537,0,0,0
2401,-0.011849,-0.011849,0.02401,-1.01671e-14,4.97348e-16,1.72441e-15,0,0,128.695,0,0,0
2411,-0.0118988,-0.0118988,0.02411,-1.07533e-14,9.87119e-16,1.65592e-15,0,0,128.852,0,0,0
2421,-0.0119486,-0.0119486,0.02421,-9.86379e-15,1.71176e-15,1.91911e-15,0,0,129.009,0,0,0
2430.56,-0.0119962,-0.0119962,0.0243056,-9.91976e-15,2.13931e-15,1.78266e-15,0,0,129.166,0,0,0
2441,-0.0120482,-0.0120482,0.02441,-9.85553e-15,1.79299e-15,2.58949e-15,0,0,129.323,0,0,0
2450.44,-0.0120953,-0.0120953,0.0245044,-9.63807e-15,1.55176e-15,2.70283e-15,0,0,129.48,0,0,0
2461,-0.0121478,-0.0121478,0.02461,-1.02647e-14,1.53911e-15,3.25405e-15,0,0,129.636,0,0,0
2471,-0.0121977,-0.0121977,0.02471,-1.0178e-14,1.5084e-15,3.57022e-15,0,0,129.792,0,0,0
2480.29,-0.0122439,-0.0122439,0.0248029,-9.99322e-15,1.74232e-15,3.727e-15,0,0,129.949,0,0,0
2490.19,-0.0122932,-0.0122932,0.0249019,-1.00957e-14,1.43326e-15,3.68152e-15,0,0,130.107,0,0,0
2500.67,-0.0123454,-0.0123454,0.0250067,-1.06721e-14,1.42309e-15,4.06851e-15,0,0,130.262,0,0,0
2510.67,-0.0123952,-0.0123952,0.0251067,-1.13362e-14,5.62248e-16,4.27232e-15,0,0,130.419,0,0,0
2520.67,-0.012445,-0.012445,0.0252067,-1.13215e-14,2.02051e-16,4.2915e-15,0,0,130.575,0,0,0
2531,-0.0124965,-0.0124965,0.02531,-1.17491e-14,1.86498e-16,4.01047e-15,0,0,130.73,0,0,0
2540.44,-0.0125436,-0.0125435,0.0254044,-1.18278e-14,4.4383e-16,3.78022e-15,0,0,130.884,0,0,0
2551,-0.0125961,-0.0125961,0.02551,-1.21089e-14,2.58368e-16,4.29781e-15,0,0,131.04,0,0,0
2560.67,-0.0126443,-0.0126443,0.0256067,-1.17409e-14,1.71966e-16,3.67305e-15,0,0,131.195,0,0,0
2571,-0.0126958,-0.0126958,0.02571,-1.12557e-14,3.60479e-16,3.36558e-15,0,0,131.349,0,0,0
2580.19,-0.0127415,-0.0127415,0.0258019,-1.12381e-14,3.84036e-16,2.92897e-15,0,0,131.505,0,0,0
2591,-0.0127954,-0.0127954,0.02591,-1.13562e-14,2.8013e-16,2.79554e-15,0,0,131.659,0,0,0
2600.07,-0.0128406,-0.0128406,0.0260007,-1.14528e-14,4.10179e-16,3.1799e-15,0,0,131.814,0,0,0
2611,-0.012895,-0.012895,0.02611,-1.10017e-14,-4.02791e-16,3.11595e-15,0,0,131.969,0,0,0
2620.67,-0.0129432,-0.0129432,0.0262067,-1.18478e-14,3.04413e-18,2.91691e-15,0,0,132.123,0,0,0
2630.18,-0.0129905,-0.0129905,0.0263018,-1.11135e-14,2.38569e-16,3.02572e-15,0,0,132.278,0,0,0
2640.16,-0.0130402,-0.0130402,0.0264016,-1.02937e-14,-5.01982e-17,2.45722e-15,0,0,132.433,0,0,0
2651,-0.0130943,-0.0130943,0.02651,-1.01625e-14,1.63926e-17,2.09568e-15,0,0,132.588,0,0,0
2660.67,-0.0131424,-0.0131424,0.0266067,-1.02144e-14,-9.9868e-17,1.8292e-15,0,0,132.742,0,0,0
2671,-0.0131939,-0.0131939,0.02671,-1.01001e-14,-1.54424e-16,1.49284e-15,0,0,132.897,0,0,0
2680.67,-0.013242,-0.013242,0.0268067,-9.89144e-15,-1.95245e-16,1.19189e-15,0,0,133.051,0,0,0
2690.56,-0.0132913,-0.0132913,0.0269056,-9.91432e-15,-4.43999e-16,1.40118e-15,0,0,133.205,0,0,0
2700.56,-0.0133411,-0.0133411,0.0270056,-1.00783e-14,-7.5791e-16,1.67797e-15,0,0,133.359,0,0,0
2710.19,-0.0133891,-0.0133891,0.0271019,-9.68695e-15,-3.12644e-16,1.99623e-15,0,0,133.513,0,0,0
2721,-0.013443,-0.0134429,0.02721,-9.43243e-15,-3.58345e-16,2.25132e-15,0,0,133.67,0,0,0
2731,-0.0134928,-0.0134928,0.02731,-8.85242e-15,-6.21937e-16,1.79492e-15,0,0,133.823,0,0,0
2740.67,-0.0135409,-0.0135409,0.0274067,-8.73674e-15,-4.95773e-16,1.41385e-15,0,0,133.975,0,0,0
2750.67,-0.0135907,-0.0135907,0.0275067,-8.47266e-15,-5.26499e-16,1.63885e-15,0,0,134.129,0,0,0
2760.44,-0.0136394,-0.0136394,0.0276044,-8.44803e-15,-6.97795e-16,1.44889e-15,0,0,134.283,0,0,0
2770.67,-0.0136904,-0.0136904,0.0277067,-8.16908e-15,-5.47167e-16,1.37864e-15,0,0,134.436,0,0,0
2781,-0.0137418,-0.0137418,0.02781,-8.68458e-15,-2.73234e-16,1.0445e-15,0,0,134.59,0,0,0
2791,-0.0137916,-0.0137916,0.02791,-9.72408e-15,-1.31345e-16,1.19378e-15,0,0,134.743,0,0,0
2801,-0.0138415,-0.0138415,0.02801,-9.29376e-15,-9.38078e-17,1.44071e-15,0,0,134.898,0,0,0
2811,-0.0138913,-0.0138913,0.02811,-9.21574e-15,-4.80518e-16,1.13281e-15,0,0,135.052,0,0,0
2821,-0.0139411,-0.0139411,0.02821,-9.23042e-15,-5.27516e-17,9.9208e-16,0,0,135.204,0,0,0
2831,-0.0139909,-0.0139909,0.02831,-9.38905e-15,-5.25005e-16,1.36414e-15,0,0,135.356,0,0,0
2841,-0.0140407,-0.0140407,0.02841,-9.17092e-15,-3.89889e-16,1.02214e-15,0,0,135.508,0,0,0
2851,-0.0140905,-0.0140905,0.02851,-1.00313e-14,-2.96523e-16,1.47267e-15,0,0,135.66,0,0,0
2861,-0.0141404,-0.0141404,0.02861,-1.03274e-14,-4.13342e-16,1.42541e-15,0,0,135.813,0,0,0
2871,-0.0141902,-0.0141902,0.02871,-9.56697e-15,3.62416e-16,9.64182e-16,0,0,135.962,0,0,0
2880.19,-0.0142359,-0.0142359,0.0288019,-9.56329e-15,2.5368e-16,7.05964e-16,0,0,136.112,0,0,0
2891,-0.0142898,-0.0142898,0.02891,-9.50059e-15,2.71443e-16,7.21489e-16,0,0,136.268,0,0,0
2901,-0.0143396,-0.0143396,0.02901,-9.497e-15,4.54942e-17,8.15152e-16,0,0,136.42,0,0,0
2910.67,-0.0143878,-0.0143878,0.0291067,-9.69721e-15,4.87263e-16,1.2894e-15,0,0,136.571,0,0,0
2920.19,-0.0144352,-0.0144352,0.0292019,-9.29426e-15,4.80796e-16,1.57877e-15,0,0,136.717,0,0,0
2930.44,-0.0144863,-0.0144863,0.0293044,-9.02461e-15,4.30347e-16,1.17093e-15,0,0,136.861,0,0,0
2940.68,-0.0145373,-0.0145373,0.0294068,-8.91975e-15,3.70392e-16,1.01051e-15,0,0,137.012,0,0,0
2950.19,-0.0145846,-0.0145846,0.0295019,-9.15667e-15,-1.68264e-16,7.11769e-16,0,0,137.163,0,0,0
2960.67,-0.0146369,-0.0146369,0.0296067,-8.54018e-15,-4.08027e-16,4.30159e-16,0,0,137.307,0,0,0
2971,-0.0146884,-0.0146884,0.02971,-7.97161e-15,-7.6268e-16,2.12601e-16,0,0,137.453,0,0,0
2981,-0.0147382,-0.0147382,0.02981,-7.38992e-15,-1.05399e-15,1.05011e-16,0,0,137.602,0,0,0
2991,-0.014788,-0.014788,0.02991,-6.96938e-15,-9.92838e-16,-1.73667e-16,0,0,137.743,0,0,0
3000.3,-0.0148343,-0.0148343,0.030003,-6.75212e-15,-7.87122e-16,-7.23279e-16,0,0,137.895,0,0,0
3011,-0.0148876,-0.0148876,0.03011,-5.54707e-15,-1.14099e-15,-3.17369e-16,0,0,138.042,0,0,0
3021,-0.0149375,-0.0149375,0.03021,-4.76047e-15,-1.11448e-15,-6.66642e-16,0,0,138.199,0,0,0
3030.67,-0.0149856,-0.0149856,0.0303067,-4.2361e-15,-8.56957e-16,-4.57883e-16,0,0,138.355,0,0,0
3041,-0.0150371,-0.0150371,0.03041,-5.31349e-15,-8.67854e-16,-8.52829e-16,0,0,138.511,0,0,0
3051,-0.0150869,-0.0150869,0.03051,-5.43798e-15,-1.0134e-15,-1.12084e-15,0,0,138.668,0,0,0
3060.44,-0.0151339,-0.0151339,0.0306044,-5.78594e-15,-6.57011e-16,-8.09748e-16,0,0,138.821,0,0,0
3070.67,-0.0151849,-0.0151849,0.0307067,-6.45042e-15,-8.14559e-16,-5.64719e-16,0,0,138.966,0,0,0
3081,-0.0152363,-0.0152363,0.03081,-5.97132e-15,-7.19603e-16,-4.73836e-16,0,0,139.119,0,0,0
3091,-0.0152861,-0.0152861,0.03091,-6.02266e-15,-9.93909e-16,-1.25511e-15,0,0,139.286,0,0,0
3101,-0.0153359,-0.0153359,0.03101,-5.68908e-15,-5.19625e-16,-1.58358e-15,0,0,139.446,0,0,0
3110.67,-0.0153841,-0.0153841,0.0311067,-5.47337e-15,-8.28665e-16,-1.58859e-15,0,0,139.589,0,0,0
3120.19,-0.0154315,-0.0154315,0.0312019,-5.4918e-15,-8.30929e-16,-1.55596e-15,0,0,139.736,0,0,0
3131,-0.0154854,-0.0154854,0.03131,-5.3638e-15,-1.13346e-15,-9.48774e-16,0,0,139.885,0,0,0
3141,-0.0155352,-0.0155352,0.03141,-4.88076e-15,-8.34434e-16,-1.46902e-15,0,0,140.036,0,0,0
3151,-0.0155851,-0.0155851,0.03151,-4.7841e-15,-7.80477e-16,-1.70951e-15,0,0,140.184,0,0,0
3161,-0.0156349,-0.0156349,0.03161,-4.67688e-15,-4.02919e-16,-2.14001e-15,0,0,140.331,0,0,0
3170.19,-0.0156806,-0.0156806,0.0317019,-4.20977e-15,-7.4966e-16,-2.57526e-15,0,0,140.473,0,0,0
3180.67,-0.0157329,-0.0157329,0.0318067,-3.71627e-15,-5.92664e-17,-2.72355e-15,0,0,140.623,0,0,0
3190.19,-0.0157803,-0.0157803,0.0319019,-3.72203e-15,9.69364e-18,-2.75363e-15,0,0,140.779,0,0,0
3201,-0.0158341,-0.0158341,0.03201,-4.04011e-15,5.43778e-16,-3.5662e-15,0,0,140.931,0,0,0
3210.3,-0.0158805,-0.0158805,0.032103,-4.61115e-15,3.00108e-16,-3.49405e-15,0,0,141.069,0,0,0
3221,-0.0159338,-0.0159338,0.03221,-4.11546e-15,-2.30886e-16,-3.33569e-15,0,0,141.199,0,0,0
3231,-0.0159837,-0.0159837,0.03231,-4.59409e-15,-4.11408e-16,-3.35559e-15,0,0,141.332,0,0,0
3241,-0.0160335,-0.0160335,0.03241,-4.78018e-15,-2.34237e-16,-3.26884e-15,0,0,141.487,0,0,0
3251,-0.0160833,-0.0160833,0.03251,-4.6515e-15,-4.17579e-16,-2.87387e-15,0,0,141.622,0,0,0
3260.67,-0.0161315,-0.0161315,0.0326067,-5.1392e-15,-5.60744e-16,-2.76427e-15,0,0,141.769,0,0,0
3271,-0.016183,-0.016183,0.03271,-5.06846e-15,-9.70627e-16,-2.75008e-15,0,0,141.903,0,0,0
3281,-0.0162328,-0.0162328,0.03281,-4.78987e-15,-1.25086e-15,-3.15532e-15,0,0,142.041,0,0,0
3291,-0.0162826,-0.0162826,0.03291,-4.09494e-15,-1.69734e-15,-2.9291e-15,0,0,142.18,0,0,0
3300.67,-0.0163308,-0.0163308,0.0330067,-3.73669e-15,-1.40419e-15,-2.79693e-15,0,0,142.327,0,0,0
3311,-0.0163823,-0.0163823,0.03311,-3.17555e-15,-1.60324e-15,-2.94222e-15,0,0,142.463,0,0,0
3321,-0.0164321,-0.0164321,0.03321,-3.10144e-15,-1.84319e-15,-3.26308e-15,0,0,142.607,0,0,0
3330.44,-0.0164792,-0.0164792,0.0333044,-2.73417e-15,-1.86916e-15,-2.79954e-15,0,0,142.745,0,0,0
3340,-0.0165268,-0.0165268,0.0334,-3.09665e-15,-1.98403e-15,-2.78058e-15,0,0,142.877,0,0,0
3350,-0.0165766,-0.0165766,0.0335,-3.40619e-15,-2.11932e-15,-2.93209e-15,0,0,143.01,0,0,0
3360,-0.0166264,-0.0166264,0.0336,-3.01861e-15,-1.79139e-15,-2.89278e-15,0,0,143.158,0,0,0
3370,-0.0166763,-0.0166763,0.0337,-2.61709e-15,-1.85761e-15,-3.35104e-15,0,0,143.304,0,0,0
3380,-0.0167261,-0.0167261,0.0338,-2.55391e-15,-1.72888e-15,-3.44465e-15,0,0,143.455,0,0,0
3390,-0.0167759,-0.0167759,0.0339,-2.55236e-15,-1.52599e-15,-3.08201e-15,0,0,143.603,0,0,0
3400,-0.0168257,-0.0168257,0.034,-2.67944e-15,-1.48695e-15,-3.24299e-15,0,0,143.751,0,0,0
3410,-0.0168755,-0.0168755,0.0341,-2.89444e-15,-1.58027e-15,-3.10139e-15,0,0,143.906,0,0,0
3420,-0.0169253,-0.0169253,0.0342,-3.16164e-15,-1.99599e-15,-2.92602e-15,0,0,144.069,0,0,0
3430,-0.0169751,-0.0169751,0.0343,-3.31367e-15,-2.00737e-15,-3.1839e-15,0,0,144.228,0,0,0
3440,-0.0170249,-0.0170249,0.0344,-3.86404e-15,-2.01781e-15,-3.33334e-15,0,0,144.399,0,0,0
3450,-0.0170748,-0.0170748,0.0345,-3.59554e-15,-2.14117e-15,-3.55073e-15,0,0,144.54,0,0,0
3460,-0.0171246,-0.0171246,0.0346,-3.19821e-15,-2.29566e-15,-3.7999e-15,0,0,144.689,0,0,0
3470,-0.0171744,-0.0171744,0.0347,-3.02859e-15,-2.07207e-15,-3.84187e-15,0,0,144.823,0,0,0
3480,-0.0172242,-0.0172242,0.0348,-2.78994e-15,-1.8131e-15,-3.38087e-15,0,0,144.974,0,0,0
3490,-0.0172741,-0.0172741,0.0349,-3.13035e-15,-1.94758e-15,-3.53355e-15,0,0,145.119,0,0,0
3500,-0.0173239,-0.0173239,0.035,-3.56331e-15,-1.87005e-15,-3.79632e-15,0,0,145.267,0,0,0
3510,-0.0173737,-0.0173737,0.0351,-3.39565e-15,-1.83237e-15,-3.71915e-15,0,0,145.401,0,0,0
3520,-0.0174235,-0.0174235,0.0352,-3.67605e-15,-1.97459e-15,-3.72324e-15,0,0,145.552,0,0,0
3530,-0.0174734,-0.0174734,0.0353,-3.46607e-15,-1.95489e-15,-3.71564e-15,0,0,145.699,0,0,0
3540,-0.0175232,-0.0175232,0.0354,-3.49296e-15,-2.02764e-15,-3.58579e-15,0,0,145.84,0,0,0
3550,-0.017573,-0.017573,0.0355,-3.9629e-15,-2.13504e-15,-3.75648e-15,0,0,145.984,0,0,0
3560,-0.0176228,-0.0176228,0.0356,-4.52935e-15,-1.7399e-15,-3.63676e-15,0,0,146.127,0,0,0
3570,-0.0176727,-0.0176727,0.0357,-4.63174e-15,-1.88674e-15,-3.57387e-15,0,0,146.271,0,0,0
3580,-0.0177225,-0.0177225,0.0358,-4.57032e-15,-1.84829e-15,-3.76272e-15,0,0,146.414,0,0,0
3590,-0.0177723,-0.0177723,0.0359,-4.72249e-15,-2.06536e-15,-3.83973e-15,0,0,146.563,0,0,0
3600,-0.0178221,-0.0178221,0.036,-4.57855e-15,-1.77844e-15,-3.90037e-15,0,0,146.706,0,0,0
3610,-0.017872,-0.017872,0.0361,-4.47875e-15,-1.82437e-15,-3.97644e-15,0,0,146.845,0,0,0
3620,-0.0179218,-0.0179218,0.0362,-4.54433e-15,-1.77529e-15,-3.83336e-15,0,0,146.982,0,0,0
3630,-0.0179716,-0.0179716,0.0363,-4.16849e-15,-1.8755e-15,-3.73364e-15,0,0,147.131,0,0,0
3640,-0.0180215,-0.0180215,0.0364,-3.60219e-15,-1.81327e-15,-4.15943e-15,0,0,147.274,0,0,0
3650,-0.0180713,-0.0180713,0.0365,-3.53765e-15,-1.69209e-15,-4.11404e-15,0,0,147.417,0,0,0
3660,-0.0181211,-0.0181211,0.0366,-3.84614e-15,-1.65735e-15,-4.09283e-15,0,0,147.553,0,0,0
3670,-0.0181709,-0.0181709,0.0367,-3.89272e-15,-1.45999e-15,-4.25551e-15,0,0,147.705,0,0,0
3680,-0.0182208,-0.0182208,0.0368,-3.69059e-15,-1.28851e-15,-4.35432e-15,0,0,147.848,0,0,0
3690,-0.0182706,-0.0182706,0.0369,-3.66593e-15,-1.41538e-15,-4.19738e-15,0,0,147.994,0,0,0
3700,-0.0183204,-0.0183204,0.037,-3.87155e-15,-1.32854e-15,-4.29799e-15,0,0,148.132,0,0,0
3710,-0.0183702,-0.0183702,0.0371,-3.71902e-15,-1.26466e-15,-4.33518e-15,0,0,148.278,0,0,0
3720,-0.0184201,-0.0184201,0.0372,-3.79006e-15,-1.14902e-15,-3.94358e-15,0,0,148.416,0,0,0
3730,-0.0184699,-0.0184699,0.0373,-3.6348e-15,-1.38e-15,-3.84105e-15,0,0,148.558,0,0,0
3740,-0.0185197,-0.0185197,0.0374,-3.53552e-15,-1.5864e-15,-4.12116e-15,0,0,148.697,0,0,0
3750,-0.0185696,-0.0185696,0.0375,-3.55166e-15,-1.52047e-15,-4.28267e-15,0,0,148.841,0,0,0
3760,-0.0186194,-0.0186194,0.0376,-3.06828e-15,-1.14036e-15,-4.2742e-15,0,0,148.985,0,0,0
3770,-0.0186692,-0.0186692,0.0377,-2.82921e-15,-1.15416e-15,-4.59607e-15,0,0,149.128,0,0,0
3780,-0.018719,-0.018719,0.0378,-2.83897e-15,-1.0796e-15,-4.55308e-15,0,0,149.259,0,0,0
3790,-0.0187689,-0.0187689,0.0379,-2.12254e-15,-1.22751e-15,-4.48313e-15,0,0,149.41,0,0,0
3800,-0.0188187,-0.0188187,0.038,-1.729e-15,-1.52457e-15,-4.46121e-15,0,0,149.541,0,0,0
3810,-0.0188685,-0.0188685,0.0381,-1.56512e-15,-1.44422e-15,-4.30052e-15,0,0,149.682,0,0,0
3820,-0.0189184,-0.0189184,0.0382,-1.86038e-15,-1.63022e-15,-4.26744e-15,0,0,149.831,0,0,0
3830,-0.0189682,-0.0189682,0.0383,-1.4885e-15,-1.432e-15,-4.50898e-15,0,0,149.964,0,0,0
3840,-0.019018,-0.019018,0.0384,-9.02344e-16,-1.37056e-15,-4.68337e-15,0,0,150.113,0,0,0
3850,-0.0190678,-0.0190678,0.0385,-3.21637e-16,-1.71491e-15,-4.47473e-15,0,0,150.251,0,0,0
3860,-0.0191177,-0.0191177,0.0386,4.35811e-16,-1.63252e-15,-4.6652e-15,0,0,150.394,0,0,0
3870,-0.0191675,-0.0191675,0.0387,6.29252e-16,-1.81973e-15,-4.56911e-15,0,0,150.531,0,0,0
3880,-0.0192173,-0.0192173,0.0388,5.72091e-16,-1.62945e-15,-4.45172e-15,0,0,150.674,0,0,0
3890,-0.0192672,-0.0192672,0.0389,3.6731e-16,-1.52164e-15,-4.24944e-15,0,0,150.811,0,0,0
3900,-0.019317,-0.019317,0.039,6.03029e-16,-1.71754e-15,-4.15003e-15,0,0,150.954,0,0,0
3910,-0.0193668,-0.0193668,0.0391,4.46315e-16,-1.40562e-15,-4.13434e-15,0,0,151.09,0,0,0
3920,-0.0194167,-0.0194167,0.0392,9.5877e-16,-1.3669e-15,-4.2048e-15,0,0,151.23,0,0,0
3930,-0.0194665,-0.0194665,0.0393,1.46423e-15,-1.46159e-15,-4.04018e-15,0,0,151.372,0,0,0
3940,-0.0195163,-0.0195163,0.0394,1.62621e-15,-1.34829e-15,-3.97132e-15,0,0,151.512,0,0,0
3950,-0.0195662,-0.0195662,0.0395,1.84902e-15,-1.27909e-15,-4.04385e-15,0,0,151.647,0,0,0
3960,-0.019616,-0.019616,0.0396,2.28808e-15,-1.36975e-15,-3.95621e-15,0,0,151.787,0,0,0
3970,-0.0196658,-0.0196658,0.0397,2.56075e-15,-1.55505e-15,-3.89863e-15,0,0,151.927,0,0,0
3980,-0.0197156,-0.0197156,0.0398,2.94869e-15,-1.41678e-15,-3.87193e-15,0,0,152.068,0,0,0
3990,-0.0197655,-0.0197655,0.0399,2.99402e-15,-1.53316e-15,-4.17376e-15,0,0,152.205,0,0,0
4000,-0.0198153,-0.0198153,0.04,2.86345e-15,-1.58794e-15,-3.96775e-15,0,0,152.346,0,0,0
4010,-0.0198651,-0.0198651,0.0401,2.66543e-15,-1.45262e-15,-3.94903e-15,0,0,152.475,0,0,0
4020,-0.019915,-0.019915,0.0402,2.5674e-15,-1.41214e-15,-4.04293e-15,0,0,152.621,0,0,0
4030,-0.0199648,-0.0199648,0.0403,2.16882e-15,-1.70974e-15,-4.45187e-15,0,0,152.761,0,0,0
4040,-0.0200146,-0.0200146,0.0404,2.29457e-15,-1.62944e-15,-4.44634e-15,0,0,152.89,0,0,0
4050,-0.0200645,-0.0200645,0.0405,2.18967e-15,-1.44098e-15,-4.23882e-15,0,0,153.033,0,0,0
4060,-0.0201143,-0.0201143,0.0406,2.23029e-15,-1.82614e-15,-4.06857e-15,0,0,153.165,0,0,0
4070,-0.0201641,-0.0201641,0.0407,2.49207e-15,-1.61932e-15,-4.19528e-15,0,0,153.309,0,0,0
4080,-0.020214,-0.020214,0.0408,2.52172e-15,-1.63714e-15,-4.2024e-15,0,0,153.445,0,0,0
4090,-0.0202638,-0.0202638,0.0409,2.12081e-15,-1.86959e-15,-4.47882e-15,0,0,153.571,0,0,0
4100,-0.0203136,-0.0203136,0.041,1.89601e-15,-1.77941e-15,-4.37472e-15,0,0,153.718,0,0,0
4110,-0.0203635,-0.0203635,0.0411,1.73982e-15,-1.66848e-15,-4.24676e-15,0,0,153.855,0,0,0
4120,-0.0204133,-0.0204133,0.0412,1.57009e-15,-1.73985e-15,-4.45605e-15,0,0,153.992,0,0,0
4130,-0.0204631,-0.0204631,0.0413,1.00701e-15,-1.94146e-15,-4.18703e-15,0,0,154.128,0,0,0
4140,-0.020513,-0.020513,0.0414,7.42571e-16,-2.01615e-15,-4.21398e-15,0,0,154.265,0,0,0
4150,-0.0205628,-0.0205628,0.0415,7.71857e-16,-2.06745e-15,-4.1855e-15,0,0,154.399,0,0,0
4160,-0.0206126,-0.0206126,0.0416,8.93679e-16,-1.92731e-15,-4.04801e-15,0,0,154.536,0,0,0
4170,-0.0206625,-0.0206625,0.0417,1.23721e-15,-1.83474e-15,-3.93902e-15,0,0,154.674,0,0,0
4180,-0.0207123,-0.0207123,0.0418,1.31157e-15,-2.07846e-15,-3.88442e-15,0,0,154.813,0,0,0
4190,-0.0207622,-0.0207621,0.0419,1.32248e-15,-1.93772e-15,-3.84722e-15,0,0,154.947,0,0,0
4200,-0.020812,-0.020812,0.042,1.41344e-15,-2.0628e-15,-3.94737e-15,0,0,155.083,0,0,0
4210,-0.0208618,-0.0208618,0.0421,1.32466e-15,-2.3684e-15,-3.83616e-15,0,0,155.221,0,0,0
4220,-0.0209117,-0.0209117,0.0422,1.64519e-15,-2.20395e-15,-3.60741e-15,0,0,155.356,0,0,0
4230,-0.0209615,-0.0209615,0.0423,1.89436e-15,-2.18652e-15,-3.57187e-15,0,0,155.49,0,0,0
4240,-0.0210113,-0.0210113,0.0424,2.02292e-15,-2.2928e-15,-3.36361e-15,0,0,155.627,0,0,0
4250,-0.0210612,-0.0210612,0.0425,2.1269e-15,-2.19931e-15,-3.3833e-15,0,0,155.765,0,0,0
4260,-0.021111,-0.021111,0.0426,2.19373e-15,-2.10411e-15,-3.41816e-15,0,0,155.898,0,0,0
4270,-0.0211608,-0.0211608,0.0427,2.22589e-15,-2.21502e-15,-3.66338e-15,0,0,156.034,0,0,0
4280,-0.0212107,-0.0212107,0.0428,2.28231e-15,-2.27835e-15,-3.91198e-15,0,0,156.172,0,0,0
4290,-0.0212605,-0.0212605,0.0429,2.43989e-15,-2.37736e-15,-3.7872e-15,0,0,156.304,0,0,0
4300,-0.0213103,-0.0213103,0.043,2.97138e-15,-2.15424e-15,-3.68048e-15,0,0,156.439,0,0,0
4310,-0.0213602,-0.0213602,0.0431,3.15583e-15,-2.19165e-15,-4.03025e-15,0,0,156.571,0,0,0
4320,-0.02141,-0.02141,0.0432,3.40751e-15,-2.43857e-15,-3.8971e-15,0,0,156.711,0,0,0
4330,-0.0214599,-0.0214599,0.0433,3.68797e-15,-2.40855e-15,-3.78982e-15,0,0,156.839,0,0,0
4340,-0.0215097,-0.0215097,0.0434,3.39052e-15,-2.33378e-15,-3.85469e-15,0,0,156.971,0,0,0
4350,-0.0215595,-0.0215595,0.0435,3.59724e-15,-2.2481e-15,-3.97614e-15,0,0,157.111,0,0,0
4360,-0.0216094,-0.0216094,0.0436,3.25317e-15,-2.16052e-15,-3.99133e-15,0,0,157.245,0,0,0
4370,-0.0216592,-0.0216592,0.0437,3.4361e-15,-2.30631e-15,-3.956e-15,0,0,157.38,0,0,0
4380,-0.021709,-0.021709,0.0438,3.44351e-15,-2.41352e-15,-4.09577e-15,0,0,157.506,0,0,0
4390,-0.0217589,-0.0217589,0.0439,3.81327e-15,-2.4543e-15,-4.19139e-15,0,0,157.64,0,0,0
4400,-0.0218087,-0.0218087,0.044,4.205e-15,-2.51456e-15,-4.11774e-15,0,0,157.782,0,0,0
4410,-0.0218585,-0.0218585,0.0441,4.12266e-15,-2.82971e-15,-4.1102e-15,0,0,157.92,0,0,0
4420,-0.0219084,-0.0219084,0.0442,4.45196e-15,-3.00337e-15,-4.07032e-15,0,0,158.042,0,0,0
4430,-0.0219582,-0.0219582,0.0443,4.72468e-15,-2.93106e-15,-3.90653e-15,0,0,158.178,0,0,0
4440,-0.0220081,-0.0220081,0.0444,4.24424e-15,-2.91228e-15,-4.01766e-15,0,0,158.309,0,0,0
4450,-0.0220579,-0.0220579,0.0445,4.08174e-15,-3.15225e-15,-3.86013e-15,0,0,158.45,0,0,0
4460,-0.0221077,-0.0221077,0.0446,4.21026e-15,-2.95521e-15,-3.8067e-15,0,0,158.578,0,0,0
4470,-0.0221576,-0.0221576,0.0447,4.2869e-15,-2.93392e-15,-3.60565e-15,0,0,158.718,0,0,0
4480,-0.0222074,-0.0222074,0.0448,4.30417e-15,-2.7993e-15,-3.67376e-15,0,0,158.85,0,0,0
4490,-0.0222573,-0.0222573,0.0449,4.28118e-15,-2.98902e-15,-3.79901e-15,0,0,158.986,0,0,0
4500,-0.0223071,-0.0223071,0.045,3.93206e-15,-2.88855e-15,-3.26589e-15,0,0,159.117,0,0,0
4510,-0.0223569,-0.0223569,0.0451,3.71513e-15,-2.99702e-15,-3.49071e-15,0,0,159.249,0,0,0
4520,-0.0224068,-0.0224068,0.0452,3.83034e-15,-2.88784e-15,-3.48754e-15,0,0,159.385,0,0,0
4530,-0.0224566,-0.0224566,0.0453,3.60752e-15,-2.89373e-15,-3.7171e-15,0,0,159.511,0,0,0
4540,-0.0225064,-0.0225064,0.0454,3.71436e-15,-2.9278e-15,-3.68887e-15,0,0,159.649,0,0,0
4550,-0.0225563,-0.0225563,0.0455,3.24394e-15,-3.09092e-15,-3.61176e-15,0,0,159.78,0,0,0
4560,-0.0226061,-0.0226061,0.0456,2.98901e-15,-3.16997e-15,-3.76267e-15,0,0,159.911,0,0,0
4570,-0.022656,-0.022656,0.0457,2.4363e-15,-3.11441e-15,-3.84406e-15,0,0,160.044,0,0,0
4580,-0.0227058,-0.0227058,0.0458,2.71597e-15,-3.20749e-15,-3.97162e-15,0,0,160.178,0,0,0
4590,-0.0227557,-0.0227556,0.0459,2.78072e-15,-3.09329e-15,-4.04363e-15,0,0,160.308,0,0,0
4600,-0.0228055,-0.0228055,0.046,3.13918e-15,-2.94945e-15,-4.05058e-15,0,0,160.44,0,0,0
4610,-0.0228553,-0.0228553,0.0461,3.72428e-15,-2.87137e-15,-4.0521e-15,0,0,160.571,0,0,0
4620,-0.0229052,-0.0229052,0.0462,4.14007e-15,-2.85511e-15,-3.88844e-15,0,0,160.704,0,0,0
4630,-0.022955,-0.022955,0.0463,4.31306e-15,-3.01422e-15,-4.02383e-15,0,0,160.837,0,0,0
4640,-0.0230049,-0.0230049,0.0464,3.97636e-15,-2.84245e-15,-4.08274e-15,0,0,160.957,0,0,0
4650,-0.0230547,-0.0230547,0.0465,4.17132e-15,-2.80912e-15,-4.44377e-15,0,0,161.088,0,0,0
4660,-0.0231045,-0.0231045,0.0466,4.25949e-15,-2.83421e-15,-4.48039e-15,0,0,161.22,0,0,0
4670,-0.0231544,-0.0231544,0.0467,4.28071e-15,-2.58842e-15,-4.56476e-15,0,0,161.349,0,0,0
4680,-0.0232042,-0.0232042,0.0468,4.5094e-15,-2.44772e-15,-4.57108e-15,0,0,161.491,0,0,0
4690,-0.0232541,-0.0232541,0.0469,4.18373e-15,-2.40891e-15,-4.36925e-15,0,0,161.611,0,0,0
4700,-0.0233039,-0.0233039,0.047,4.19731e-15,-2.18792e-15,-4.39877e-15,0,0,161.742,0,0,0
4710,-0.0233538,-0.0233538,0.0471,4.19069e-15,-2.24823e-15,-4.45944e-15,0,0,161.873,0,0,0
4720,-0.0234036,-0.0234036,0.0472,4.5555e-15,-2.4303e-15,-4.34263e-15,0,0,162.004,0,0,0
4730,-0.0234534,-0.0234534,0.0473,4.45306e-15,-2.29691e-15,-4.44254e-15,0,0,162.134,0,0,0
4740,-0.0235033,-0.0235033,0.0474,4.72931e-15,-2.23607e-15,-4.67159e-15,0,0,162.274,0,0,0
4750,-0.0235531,-0.0235531,0.0475,4.57746e-15,-1.97297e-15,-4.59975e-15,0,0,162.402,0,0,0
4760,-0.023603,-0.023603,0.0476,4.49534e-15,-2.1432e-15,-4.6086e-15,0,0,162.525,0,0,0
4770,-0.0236528,-0.0236528,0.0477,4.52519e-15,-1.83702e-15,-4.86416e-15,0,0,162.663,0,0,0
4780,-0.0237026,-0.0237026,0.0478,4.51219e-15,-1.63427e-15,-4.84056e-15,0,0,162.785,0,0,0
4790,-0.0237525,-0.0237525,0.0479,4.42703e-15,-1.9098e-15,-4.86298e-15,0,0,162.923,0,0,0
4800,-0.0238023,-0.0238023,0.048,4.33053e-15,-2.11492e-15,-4.87866e-15,0,0,163.051,0,0,0
4810,-0.0238522,-0.0238522,0.0481,4.55149e-15,-2.20999e-15,-5.18125e-15,0,0,163.18,0,0,0
4820,-0.023902,-0.023902,0.0482,4.22289e-15,-2.22337e-15,-4.82825e-15,0,0,163.309,0,0,0
4830,-0.0239518,-0.0239518,0.0483,4.22819e-15,-1.9324e-15,-4.82207e-15,0,0,163.444,0,0,0
4840,-0.0240017,-0.0240017,0.0484,3.99878e-15,-2.01698e-15,-4.80959e-15,0,0,163.573,0,0,0
4850,-0.0240515,-0.0240515,0.0485,3.96817e-15,-2.1581e-15,-4.53689e-15,0,0,163.699,0,0,0
4860,-0.0241014,-0.0241014,0.0486,4.20975e-15,-2.29298e-15,-4.44067e-15,0,0,163.831,0,0,0
4870,-0.0241512,-0.0241512,0.0487,4.30284e-15,-2.35406e-15,-4.30823e-15,0,0,163.958,0,0,0
4880,-0.0242011,-0.0242011,0.0488,4.17157e-15,-2.37156e-15,-4.19014e-15,0,0,164.089,0,0,0
4890,-0.0242509,-0.0242509,0.0489,4.30786e-15,-2.47764e-15,-4.32193e-15,0,0,164.215,0,0,0
4900,-0.0243008,-0.0243008,0.049,4.42768e-15,-2.44714e-15,-4.32649e-15,0,0,164.345,0,0,0
4910,-0.0243506,-0.0243506,0.0491,4.64442e-15,-2.43995e-15,-4.42686e-15,0,0,164.473,0,0,0
4920,-0.0244004,-0.0244004,0.0492,4.97551e-15,-2.54944e-15,-4.31355e-15,0,0,164.603,0,0,0
4930,-0.0244503,-0.0244503,0.0493,4.92598e-15,-2.55003e-15,-4.03604e-15,0,0,164.73,0,0,0
4940,-0.0245001,-0.0245001,0.0494,4.81273e-15,-2.44903e-15,-3.92088e-15,0,0,164.857,0,0,0
4950,-0.02455,-0.02455,0.0495,4.83587e-15,-2.3956e-15,-3.87927e-15,0,0,164.987,0,0,0
4960,-0.0245998,-0.0245998,0.0496,4.77849e-15,-2.21913e-15,-3.91744e-15,0,0,165.115,0,0,0
4970,-0.0246497,-0.0246497,0.0497,4.84458e-15,-2.28849e-15,-4.03624e-15,0,0,165.24,0,0,0
4980,-0.0246995,-0.0246995,0.0498,4.67101e-15,-2.40792e-15,-4.06776e-15,0,0,165.368,0,0,0
4990,-0.0247494,-0.0247494,0.0499,4.77178e-15,-2.3182e-15,-4.02959e-15,0,0,165.49,0,0,0
5000,-0.0247992,-0.0247992,0.05,4.74286e-15,-2.56494e-15,-4.041e-15,0,0,165.615,0,0,0
5010,-0.024849,-0.024849,0.0501,4.73496e-15,-2.62072e-15,-4.07354e-15,0,0,165.754,0,0,0
5020,-0.0248989,-0.0248989,0.0502,4.62863e-15,-2.74865e-15,-4.2715e-15,0,0,165.879,0,0,0
5030,-0.0249487,-0.0249487,0.0503,4.51151e-15,-2.6808e-15,-4.22889e-15,0,0,166.007,0,0,0
5040,-0.0249986,-0.0249986,0.0504,4.56312e-15,-2.6197e-15,-4.03434e-15,0,0,166.135,0,0,0
5050,-0.0250484,-0.0250484,0.0505,4.58068e-15,-2.5492e-15,-3.98056e-15,0,0,166.263,0,0,0
5060,-0.0250983,-0.0250983,0.0506,4.68075e-15,-2.56146e-15,-4.06727e-15,0,0,166.389,0,0,0
5070,-0.0251481,-0.0251481,0.0507,4.7514e-15,-2.75041e-15,-3.90746e-15,0,0,166.519,0,0,0
5080,-0.025198,-0.025198,0.0508,4.77856e-15,-2.88433e-15,-3.90568e-15,0,0,166.644,0,0,0
5090,-0.0252478,-0.0252478,0.0509,4.84198e-15,-2.89484e-15,-3.80863e-15,0,0,166.761,0,0,0
5100,-0.0252977,-0.0252977,0.051,4.80065e-15,-3.01705e-15,-3.96928e-15,0,0,166.887,0,0,0
5110,-0.0253475,-0.0253475,0.0511,4.74669e-15,-3.05867e-15,-4.20666e-15,0,0,167.019,0,0,0
5120,-0.0253974,-0.0253974,0.0512,4.38998e-15,-2.9552e-15,-4.11378e-15,0,0,167.138,0,0,0
5130,-0.0254472,-0.0254472,0.0513,4.28328e-15,-3.08751e-15,-4.03381e-15,0,0,167.264,0,0,0
5140,-0.0254971,-0.0254971,0.0514,4.4213e-15,-2.99157e-15,-4.09015e-15,0,0,167.389,0,0,0
5150,-0.0255469,-0.0255469,0.0515,4.62052e-15,-3.22253e-15,-3.7827e-15,0,0,167.526,0,0,0
5160,-0.0255968,-0.0255968,0.0516,4.61996e-15,-3.07115e-15,-3.68258e-15,0,0,167.639,0,0,0
5170,-0.0256466,-0.0256466,0.0517,4.58276e-15,-3.04056e-15,-3.76248e-15,0,0,167.773,0,0,0
5180,-0.0256964,-0.0256964,0.0518,4.13897e-15,-3.19299e-15,-3.52557e-15,0,0,167.897,0,0,0
5190,-0.0257463,-0.0257463,0.0519,3.70575e-15,-2.93198e-15,-3.45317e-15,0,0,168.023,0,0,0
5200,-0.0257961,-0.0257961,0.052,3.50663e-15,-3.147e-15,-3.65105e-15,0,0,168.148,0,0,0
5210,-0.025846,-0.025846,0.0521,3.44576e-15,-3.14149e-15,-4.0549e-15,0,0,168.273,0,0,0
5220,-0.0258959,-0.0258958,0.0522,3.60869e-15,-3.08858e-15,-3.98295e-15,0,0,168.391,0,0,0
5230,-0.0259457,-0.0259457,0.0523,3.75594e-15,-2.9448e-15,-3.99422e-15,0,0,168.522,0,0,0
5240,-0.0259955,-0.0259955,0.0524,3.9383e-15,-2.69188e-15,-3.97065e-15,0,0,168.645,0,0,0
5250,-0.0260454,-0.0260454,0.0525,4.31001e-15,-2.68823e-15,-3.86212e-15,0,0,168.764,0,0,0
5260,-0.0260952,-0.0260952,0.0526,4.18628e-15,-2.61597e-15,-3.86204e-15,0,0,168.894,0,0,0
5270,-0.0261451,-0.0261451,0.0527,4.17383e-15,-2.69486e-15,-3.88193e-15,0,0,169.018,0,0,0
5280,-0.0261949,-0.0261949,0.0528,3.77515e-15,-2.54622e-15,-3.70532e-15,0,0,169.144,0,0,0
5290,-0.0262448,-0.0262448,0.0529,3.8336e-15,-2.5283e-15,-3.58372e-15,0,0,169.263,0,0,0
5300,-0.0262946,-0.0262946,0.053,3.72259e-15,-2.46383e-15,-3.68383e-15,0,0,169.39,0,0,0
5310,-0.0263445,-0.0263445,0.0531,3.86418e-15,-2.58304e-15,-3.72614e-15,0,0,169.512,0,0,0
5320,-0.0263943,-0.0263943,0.0532,3.69824e-15,-2.46012e-15,-3.66669e-15,0,0,169.636,0,0,0
5330,-0.0264442,-0.0264442,0.0533,3.91834e-15,-2.46931e-15,-3.58525e-15,0,0,169.754,0,0,0
5340,-0.026494,-0.026494,0.0534,4.03929e-15,-2.53915e-15,-3.52396e-15,0,0,169.877,0,0,0
5350,-0.0265439,-0.0265439,0.0535,3.79027e-15,-2.51704e-15,-3.41087e-15,0,0,169.996,0,0,0
5360,-0.0265938,-0.0265937,0.0536,4.02107e-15,-2.62589e-15,-3.37133e-15,0,0,170.123,0,0,0
5370,-0.0266436,-0.0266436,0.0537,4.06362e-15,-2.60906e-15,-3.31396e-15,0,0,170.243,0,0,0
5380,-0.0266935,-0.0266935,0.0538,3.8876e-15,-2.42569e-15,-3.25081e-15,0,0,170.36,0,0,0
5390,-0.0267433,-0.0267433,0.0539,3.90907e-15,-2.38848e-15,-3.06525e-15,0,0,170.484,0,0,0
5400,-0.0267932,-0.0267932,0.054,3.58763e-15,-2.25287e-15,-3.17098e-15,0,0,170.598,0,0,0
5410,-0.026843,-0.026843,0.0541,3.42552e-15,-2.30106e-15,-3.29216e-15,0,0,170.727,0,0,0
5420,-0.0268929,-0.0268929,0.0542,3.32145e-15,-2.03012e-15,-3.60815e-15,0,0,170.846,0,0,0
5430,-0.0269427,-0.0269427,0.0543,3.39696e-15,-1.96867e-15,-3.60682e-15,0,0,170.968,0,0,0
5440,-0.0269926,-0.0269926,0.0544,3.35354e-15,-1.75806e-15,-3.58166e-15,0,0,171.084,0,0,0
5450,-0.0270424,-0.0270424,0.0545,3.26143e-15,-1.74643e-15,-3.52778e-15,0,0,171.217,0,0,0
5460,-0.0270923,-0.0270923,0.0546,2.93278e-15,-1.80558e-15,-3.45119e-15,0,0,171.326,0,0,0
5470,-0.0271421,-0.0271421,0.0547,2.36206e-15,-1.84131e-15,-3.30021e-15,0,0,171.455,0,0,0
5480,-0.027192,-0.027192,0.0548,2.30378e-15,-1.93883e-15,-3.3989e-15,0,0,171.578,0,0,0
5490,-0.0272418,-0.0272418,0.0549,2.2827e-15,-1.86549e-15,-3.42667e-15,0,0,171.694,0,0,0
5500,-0.0272917,-0.0272917,0.055,2.17556e-15,-1.62909e-15,-3.22113e-15,0,0,171.809,0,0,0
5510,-0.0273415,-0.0273415,0.0551,2.26734e-15,-1.61443e-15,-3.30491e-15,0,0,171.94,0,0,0
5520,-0.0273914,-0.0273914,0.0552,2.44894e-15,-1.53026e-15,-3.24201e-15,0,0,172.063,0,0,0
5530,-0.0274413,-0.0274412,0.0553,2.58853e-15,-1.43753e-15,-3.11327e-15,0,0,172.18,0,0,0
5540,-0.0274911,-0.0274911,0.0554,2.36489e-15,-1.76495e-15,-3.1667e-15,0,0,172.292,0,0,0
5550,-0.027541,-0.027541,0.0555,2.39338e-15,-1.86213e-15,-3.38872e-15,0,0,172.418,0,0,0
5560,-0.0275908,-0.0275908,0.0556,2.42629e-15,-1.82772e-15,-3.40756e-15,0,0,172.542,0,0,0
5570,-0.0276407,-0.0276407,0.0557,2.38902e-15,-1.57332e-15,-3.18562e-15,0,0,172.653,0,0,0
5580,-0.0276905,-0.0276905,0.0558,2.30378e-15,-1.70876e-15,-3.31079e-15,0,0,172.772,0,0,0
5590,-0.0277404,-0.0277404,0.0559,2.04321e-15,-1.59916e-15,-3.27255e-15,0,0,172.897,0,0,0
5600,-0.0277902,-0.0277902,0.056,1.87188e-15,-1.70718e-15,-3.24561e-15,0,0,173.024,0,0,0
5610,-0.0278401,-0.0278401,0.0561,1.90134e-15,-1.78133e-15,-3.05139e-15,0,0,173.144,0,0,0
5620,-0.0278899,-0.0278899,0.0562,1.6303e-15,-1.90382e-15,-2.99314e-15,0,0,173.261,0,0,0
5630,-0.0279398,-0.0279398,0.0563,1.63962e-15,-1.93727e-15,-2.89956e-15,0,0,173.376,0,0,0
5640,-0.0279897,-0.0279896,0.0564,1.86584e-15,-1.95542e-15,-3.12388e-15,0,0,173.5,0,0,0
5650,-0.0280395,-0.0280395,0.0565,1.795e-15,-2.01224e-15,-2.9925e-15,0,0,173.621,0,0,0
5660,-0.0280894,-0.0280894,0.0566,1.72524e-15,-2.19811e-15,-2.99466e-15,0,0,173.74,0,0,0
5670,-0.0281392,-0.0281392,0.0567,1.77399e-15,-2.04584e-15,-2.9552e-15,0,0,173.858,0,0,0
5680,-0.0281891,-0.0281891,0.0568,1.66807e-15,-1.98924e-15,-2.86205e-15,0,0,173.982,0,0,0
5690,-0.0282389,-0.0282389,0.0569,1.57846e-15,-1.71886e-15,-2.84044e-15,0,0,174.101,0,0,0
5700,-0.0282888,-0.0282888,0.057,1.38417e-15,-1.84797e-15,-2.87381e-15,0,0,174.218,0,0,0
5710,-0.0283386,-0.0283386,0.0571,1.33889e-15,-1.79928e-15,-2.97539e-15,0,0,174.338,0,0,0
5720,-0.0283885,-0.0283885,0.0572,1.32183e-15,-1.84272e-15,-2.9542e-15,0,0,174.459,0,0,0
5730,-0.0284384,-0.0284383,0.0573,1.28362e-15,-1.9265e-15,-2.90848e-15,0,0,174.576,0,0,0
5740,-0.0284882,-0.0284882,0.0574,1.42093e-15,-1.90459e-15,-3.03244e-15,0,0,174.697,0,0,0
5750,-0.0285381,-0.0285381,0.0575,1.27317e-15,-1.85274e-15,-2.87059e-15,0,0,174.815,0,0,0
5760,-0.0285879,-0.0285879,0.0576,1.24275e-15,-1.85809e-15,-2.82801e-15,0,0,174.938,0,0,0
5770,-0.0286378,-0.0286378,0.0577,1.40119e-15,-1.93677e-15,-2.69654e-15,0,0,175.055,0,0,0
5780,-0.0286876,-0.0286876,0.0578,1.74593e-15,-2.07063e-15,-2.70876e-15,0,0,175.173,0,0,0
5790,-0.0287375,-0.0287375,0.0579,1.76941e-15,-1.81036e-15,-2.76295e-15,0,0,175.282,0,0,0
5800,-0.0287874,-0.0287873,0.058,1.7606e-15,-2.12169e-15,-2.80798e-15,0,0,175.401,0,0,0
5810,-0.0288372,-0.0288372,0.0581,1.67474e-15,-2.01162e-15,-2.87482e-15,0,0,175.528,0,0,0
5820,-0.0288871,-0.0288871,0.0582,1.62622e-15,-1.98325e-15,-3.14602e-15,0,0,175.643,0,0,0
5830,-0.0289369,-0.0289369,0.0583,2.18365e-15,-2.03571e-15,-3.32846e-15,0,0,175.77,0,0,0
5840,-0.0289868,-0.0289868,0.0584,2.16142e-15,-2.15228e-15,-3.18672e-15,0,0,175.886,0,0,0
5850,-0.0290366,-0.0290366,0.0585,2.1453e-15,-2.0911e-15,-3.00853e-15,0,0,176.004,0,0,0
5860,-0.0290865,-0.0290865,0.0586,2.21393e-15,-2.10535e-15,-2.81097e-15,0,0,176.125,0,0,0
5870,-0.0291363,-0.0291363,0.0587,2.33694e-15,-2.06915e-15,-2.63462e-15,0,0,176.246,0,0,0
5880,-0.0291862,-0.0291862,0.0588,2.24914e-15,-2.03432e-15,-2.80059e-15,0,0,176.376,0,0,0
5890,-0.029236,-0.029236,0.0589,2.38766e-15,-2.05788e-15,-2.76512e-15,0,0,176.496,0,0,0
5900,-0.0292859,-0.0292859,0.059,2.28321e-15,-1.88139e-15,-2.70746e-15,0,0,176.614,0,0,0
5910,-0.0293357,-0.0293357,0.0591,1.94953e-15,-1.95889e-15,-2.90282e-15,0,0,176.734,0,0,0
5920,-0.0293856,-0.0293856,0.0592,1.74431e-15,-1.94049e-15,-2.7153e-15,0,0,176.854,0,0,0
5930,-0.0294354,-0.0294354,0.0593,1.71078e-15,-1.87694e-15,-2.76114e-15,0,0,176.972,0,0,0
5940,-0.0294853,-0.0294853,0.0594,1.62272e-15,-1.89047e-15,-2.74259e-15,0,0,177.079,0,0,0
5950,-0.0295352,-0.0295352,0.0595,1.74028e-15,-1.5577e-15,-2.75706e-15,0,0,177.205,0,0,0
5960,-0.029585,-0.029585,0.0596,1.73026e-15,-1.73025e-15,-2.72706e-15,0,0,177.322,0,0,0
5970,-0.0296349,-0.0296349,0.0597,1.93969e-15,-1.55439e-15,-2.66816e-15,0,0,177.433,0,0,0
5980,-0.0296847,-0.0296847,0.0598,1.82009e-15,-1.78835e-15,-2.65183e-15,0,0,177.55,0,0,0
5990,-0.0297346,-0.0297346,0.0599,1.41285e-15,-1.70961e-15,-2.67653e-15,0,0,177.669,0,0,0
6000,-0.0297844,-0.0297844,0.06,1.49316e-15,-1.58292e-15,-2.64477e-15,0,0,177.794,0,0,0
6010,-0.0298343,-0.0298343,0.0601,1.62896e-15,-1.4891e-15,-2.5706e-15,0,0,177.902,0,0,0
6020,-0.0298842,-0.0298842,0.0602,1.93506e-15,-1.543e-15,-2.65206e-15,0,0,178.016,0,0,0
6030,-0.029934,-0.029934,0.0603,1.89878e-15,-1.71292e-15,-2.44691e-15,0,0,178.143,0,0,0
6040,-0.0299839,-0.0299839,0.0604,2.0599e-15,-1.82097e-15,-2.4123e-15,0,0,178.264,0,0,0
6050,-0.0300337,-0.0300337,0.0605,1.93338e-15,-1.96948e-15,-2.22967e-15,0,0,178.378,0,0,0
6060,-0.0300836,-0.0300836,0.0606,2.06261e-15,-1.92089e-15,-2.42977e-15,0,0,178.493,0,0,0
6070,-0.0301335,-0.0301335,0.0607,2.34886e-15,-2.10024e-15,-2.39121e-15,0,0,178.606,0,0,0
6080,-0.0301833,-0.0301833,0.0608,2.50463e-15,-2.27831e-15,-2.5717e-15,0,0,178.722,0,0,0
6090,-0.0302332,-0.0302332,0.0609,2.67671e-15,-2.28771e-15,-2.59832e-15,0,0,178.831,0,0,0
6100,-0.0302831,-0.030283,0.061,2.60615e-15,-2.22253e-15,-2.77849e-15,0,0,178.946,0,0,0
6110,-0.0303329,-0.0303329,0.0611,2.73835e-15,-2.16849e-15,-2.91015e-15,0,0,179.071,0,0,0
6120,-0.0303828,-0.0303828,0.0612,2.95448e-15,-2.03561e-15,-3.01108e-15,0,0,179.182,0,0,0
6130,-0.0304326,-0.0304326,0.0613,3.23586e-15,-1.88447e-15,-2.96029e-15,0,0,179.293,0,0,0
6140,-0.0304825,-0.0304825,0.0614,3.37164e-15,-1.59603e-15,-3.17431e-15,0,0,179.41,0,0,0
6150,-0.0305323,-0.0305323,0.0615,3.11039e-15,-1.6777e-15,-3.14875e-15,0,0,179.525,0,0,0
6160,-0.0305822,-0.0305822,0.0616,3.08532e-15,-1.86095e-15,-3.2116e-15,0,0,179.64,0,0,0
6170,-0.0306321,-0.0306321,0.0617,3.75324e-15,-1.64963e-15,-3.03542e-15,0,0,179.754,0,0,0
6180,-0.0306819,-0.0306819,0.0618,3.74768e-15,-1.50198e-15,-3.06087e-15,0,0,179.878,0,0,0
6190,-0.0307318,-0.0307318,0.0619,3.83644e-15,-1.44826e-15,-3.09937e-15,0,0,179.99,0,0,0
6200,-0.0307817,-0.0307816,0.062,3.70192e-15,-1.38853e-15,-2.88864e-15,0,0,180.102,0,0,0
6210,-0.0308315,-0.0308315,0.0621,3.50104e-15,-1.61359e-15,-2.96758e-15,0,0,180.211,0,0,0
6220,-0.0308814,-0.0308814,0.0622,3.54555e-15,-1.72744e-15,-3.17979e-15,0,0,180.323,0,0,0
6230,-0.0309312,-0.0309312,0.0623,3.97164e-15,-1.53612e-15,-3.04738e-15,0,0,180.436,0,0,0
6240,-0.0309811,-0.0309811,0.0624,4.25878e-15,-1.64846e-15,-2.96346e-15,0,0,180.56,0,0,0
6250,-0.031031,-0.031031,0.0625,4.28755e-15,-1.69303e-15,-3.05333e-15,0,0,180.673,0,0,0
6260,-0.0310808,-0.0310808,0.0626,4.30706e-15,-1.81378e-15,-3.02394e-15,0,0,180.781,0,0,0
6270,-0.0311307,-0.0311307,0.0627,3.86381e-15,-1.96489e-15,-3.28717e-15,0,0,180.896,0,0,0
6280,-0.0311806,-0.0311806,0.0628,3.67901e-15,-2.06423e-15,-3.33738e-15,0,0,181.001,0,0,0
6290,-0.0312304,-0.0312304,0.0629,3.44489e-15,-2.04531e-15,-3.45197e-15,0,0,181.118,0,0,0
6300,-0.0312803,-0.0312803,0.063,3.31153e-15,-1.96642e-15,-3.26149e-15,0,0,181.234,0,0,0
6310,-0.0313301,-0.0313301,0.0631,3.24043e-15,-1.81826e-15,-3.23337e-15,0,0,181.347,0,0,0
6320,-0.03138,-0.03138,0.0632,3.51508e-15,-1.82456e-15,-3.24337e-15,0,0,181.461,0,0,0
6330,-0.0314299,-0.0314299,0.0633,3.75849e-15,-1.92143e-15,-3.26435e-15,0,0,181.576,0,0,0
6340,-0.0314797,-0.0314797,0.0634,3.75811e-15,-1.98856e-15,-3.31199e-15,0,0,181.686,0,0,0
6350,-0.0315296,-0.0315296,0.0635,3.77611e-15,-1.81214e-15,-3.29017e-15,0,0,181.792,0,0,0
6360,-0.0315795,-0.0315795,0.0636,3.93325e-15,-1.83594e-15,-3.16277e-15,0,0,181.908,0,0,0
6370,-0.0316293,-0.0316293,0.0637,4.1636e-15,-1.88227e-15,-3.32455e-15,0,0,182.014,0,0,0
6380,-0.0316792,-0.0316792,0.0638,4.17088e-15,-1.94591e-15,-3.30236e-15,0,0,182.122,0,0,0
6390,-0.0317291,-0.0317291,0.0639,4.28716e-15,-2.09188e-15,-3.26329e-15,0,0,182.235,0,0,0
6400,-0.0317789,-0.0317789,0.064,4.38526e-15,-1.85734e-15,-3.12793e-15,0,0,182.337,0,0,0
6410,-0.0318288,-0.0318288,0.0641,4.17001e-15,-1.9589e-15,-3.09908e-15,0,0,182.459,0,0,0
6420,-0.0318787,-0.0318786,0.0642,4.13632e-15,-1.87612e-15,-2.9979e-15,0,0,182.572,0,0,0
6430,-0.0319285,-0.0319285,0.0643,3.90301e-15,-2.07106e-15,-2.83066e-15,0,0,182.675,0,0,0
6440,-0.0319784,-0.0319784,0.0644,3.65674e-15,-1.97324e-15,-2.79315e-15,0,0,182.786,0,0,0
6450,-0.0320283,-0.0320283,0.0645,3.8936e-15,-2.08044e-15,-2.84641e-15,0,0,182.898,0,0,0
6460,-0.0320781,-0.0320781,0.0646,4.12144e-15,-1.98255e-15,-2.7158e-15,0,0,183.018,0,0,0
6470,-0.032128,-0.032128,0.0647,4.14078e-15,-1.95576e-15,-2.88805e-15,0,0,183.122,0,0,0
6480,-0.0321779,-0.0321778,0.0648,4.06858e-15,-1.91753e-15,-3.00989e-15,0,0,183.233,0,0,0
6490,-0.0322277,-0.0322277,0.0649,3.71174e-15,-1.7408e-15,-3.2479e-15,0,0,183.343,0,0,0
6500,-0.0322776,-0.0322776,0.065,3.95847e-15,-1.70395e-15,-3.30053e-15,0,0,183.466,0,0,0
6510,-0.0323274,-0.0323274,0.0651,3.79384e-15,-1.67179e-15,-3.33259e-15,0,0,183.568,0,0,0
6520,-0.0323773,-0.0323773,0.0652,3.86034e-15,-1.77277e-15,-3.41917e-15,0,0,183.684,0,0,0
6530,-0.0324272,-0.0324272,0.0653,3.73967e-15,-1.66003e-15,-3.16391e-15,0,0,183.786,0,0,0
6540,-0.032477,-0.032477,0.0654,3.74199e-15,-1.55063e-15,-3.37927e-15,0,0,183.909,0,0,0
6550,-0.0325269,-0.0325269,0.0655,4.00046e-15,-1.48834e-15,-3.45365e-15,0,0,184.019,0,0,0
6560,-0.0325768,-0.0325768,0.0656,3.85649e-15,-1.35358e-15,-3.54154e-15,0,0,184.124,0,0,0
6570,-0.0326266,-0.0326266,0.0657,3.60465e-15,-1.07315e-15,-3.2477e-15,0,0,184.242,0,0,0
6580,-0.0326765,-0.0326765,0.0658,3.46964e-15,-1.12305e-15,-3.29277e-15,0,0,184.345,0,0,0
6590,-0.0327264,-0.0327264,0.0659,3.18445e-15,-1.19267e-15,-3.25392e-15,0,0,184.46,0,0,0
6600,-0.0327762,-0.0327762,0.066,3.11421e-15,-1.26423e-15,-3.10386e-15,0,0,184.571,0,0,0
6610,-0.0328261,-0.0328261,0.0661,3.19026e-15,-1.35539e-15,-3.45317e-15,0,0,184.686,0,0,0
6620,-0.032876,-0.032876,0.0662,2.99392e-15,-1.42523e-15,-3.57868e-15,0,0,184.788,0,0,0
6630,-0.0329258,-0.0329258,0.0663,2.80266e-15,-1.60693e-15,-3.46377e-15,0,0,184.902,0,0,0
6640,-0.0329757,-0.0329757,0.0664,3.09895e-15,-1.53016e-15,-3.82302e-15,0,0,185.008,0,0,0
6650,-0.0330256,-0.0330256,0.0665,3.05557e-15,-1.4337e-15,-3.82984e-15,0,0,185.115,0,0,0
6660,-0.0330754,-0.0330754,0.0666,3.1667e-15,-1.39204e-15,-3.79042e-15,0,0,185.222,0,0,0
6670,-0.0331253,-0.0331253,0.0667,3.11334e-15,-1.36183e-15,-3.88541e-15,0,0,185.335,0,0,0
6680,-0.0331752,-0.0331752,0.0668,3.39773e-15,-1.33803e-15,-3.90714e-15,0,0,185.442,0,0,0
6690,-0.033225,-0.033225,0.0669,3.45882e-15,-1.29731e-15,-3.79125e-15,0,0,185.562,0,0,0
6700,-0.0332749,-0.0332749,0.067,3.41041e-15,-1.32269e-15,-3.70503e-15,0,0,185.669,0,0,0
6710,-0.0333248,-0.0333248,0.0671,3.52559e-15,-1.36159e-15,-3.7371e-15,0,0,185.778,0,0,0
6720,-0.0333746,-0.0333746,0.0672,3.59613e-15,-1.45443e-15,-3.6437e-15,0,0,185.883,0,0,0
6730,-0.0334245,-0.0334245,0.0673,4.06204e-15,-1.42099e-15,-3.52386e-15,0,0,185.988,0,0,0
6740,-0.0334744,-0.0334744,0.0674,4.32241e-15,-1.43648e-15,-3.27113e-15,0,0,186.108,0,0,0
6750,-0.0335242,-0.0335242,0.0675,4.23023e-15,-1.50818e-15,-3.18219e-15,0,0,186.214,0,0,0
6760,-0.0335741,-0.0335741,0.0676,4.13778e-15,-1.77996e-15,-3.20551e-15,0,0,186.319,0,0,0
6770,-0.033624,-0.033624,0.0677,4.37574e-15,-1.81123e-15,-3.12014e-15,0,0,186.424,0,0,0
6780,-0.0336739,-0.0336739,0.0678,4.38844e-15,-1.69288e-15,-3.26586e-15,0,0,186.528,0,0,0
6790,-0.0337237,-0.0337237,0.0679,4.84949e-15,-1.84132e-15,-3.17671e-15,0,0,186.636,0,0,0
6800,-0.0337736,-0.0337736,0.068,4.98077e-15,-1.94894e-15,-3.17927e-15,0,0,186.75,0,0,0
6810,-0.0338235,-0.0338234,0.0681,4.93762e-15,-1.75334e-15,-3.2306e-15,0,0,186.861,0,0,0
6820,-0.0338733,-0.0338733,0.0682,5.07776e-15,-1.85781e-15,-3.42414e-15,0,0,186.964,0,0,0
6830,-0.0339232,-0.0339232,0.0683,5.05131e-15,-1.8122e-15,-3.29434e-15,0,0,187.077,0,0,0
6840,-0.0339731,-0.0339731,0.0684,5.25947e-15,-1.94695e-15,-3.43524e-15,0,0,187.182,0,0,0
6850,-0.0340229,-0.0340229,0.0685,5.46384e-15,-1.92678e-15,-3.42973e-15,0,0,187.287,0,0,0
6860,-0.0340728,-0.0340728,0.0686,5.36417e-15,-1.97006e-15,-3.36261e-15,0,0,187.395,0,0,0
6870,-0.0341227,-0.0341227,0.0687,5.61007e-15,-1.90172e-15,-3.33855e-15,0,0,187.498,0,0,0
6880,-0.0341725,-0.0341725,0.0688,5.54994e-15,-1.86711e-15,-3.39753e-15,0,0,187.611,0,0,0
6890,-0.0342224,-0.0342224,0.0689,5.35308e-15,-1.75606e-15,-3.56296e-15,0,0,187.719,0,0,0
6900,-0.0342723,-0.0342723,0.069,5.37148e-15,-1.65332e-15,-3.47386e-15,0,0,187.821,0,0,0
6910,-0.0343222,-0.0343221,0.0691,5.53783e-15,-1.61274e-15,-3.5028e-15,0,0,187.936,0,0,0
6920,-0.034372,-0.034372,0.0692,5.36556e-15,-1.59811e-15,-3.58956e-15,0,0,188.033,0,0,0
6930,-0.0344219,-0.0344219,0.0693,5.71206e-15,-1.65798e-15,-3.6885e-15,0,0,188.14,0,0,0
6940,-0.0344718,-0.0344718,0.0694,5.52835e-15,-1.66716e-15,-3.61055e-15,0,0,188.247,0,0,0
6950,-0.0345216,-0.0345216,0.0695,5.56659e-15,-1.60151e-15,-3.62194e-15,0,0,188.354,0,0,0
6960,-0.0345715,-0.0345715,0.0696,5.70246e-15,-1.6164e-15,-3.54898e-15,0,0,188.468,0,0,0
6970,-0.0346214,-0.0346214,0.0697,5.7592e-15,-1.80276e-15,-3.59637e-15,0,0,188.567,0,0,0
6980,-0.0346713,-0.0346713,0.0698,5.61415e-15,-1.88791e-15,-3.68866e-15,0,0,188.672,0,0,0
6990,-0.0347211,-0.0347211,0.0699,5.41145e-15,-1.72526e-15,-3.5216e-15,0,0,188.778,0,0,0
7000,-0.034771,-0.034771,0.07,5.53519e-15,-1.78942e-15,-3.30522e-15,0,0,188.894,0,0,0
7010,-0.0348209,-0.0348209,0.0701,5.47757e-15,-1.69462e-15,-3.30055e-15,0,0,188.989,0,0,0
7020,-0.0348707,-0.0348707,0.0702,5.4825e-15,-1.73514e-15,-3.33685e-15,0,0,189.101,0,0,0
7030,-0.0349206,-0.0349206,0.0703,5.64834e-15,-1.78596e-15,-3.29493e-15,0,0,189.205,0,0,0
7040,-0.0349705,-0.0349705,0.0704,5.3795e-15,-1.73132e-15,-3.53125e-15,0,0,189.31,0,0,0
7050,-0.0350204,-0.0350203,0.0705,5.62915e-15,-1.77756e-15,-3.48626e-15,0,0,189.419,0,0,0
7060,-0.0350702,-0.0350702,0.0706,5.4635e-15,-1.65878e-15,-3.46448e-15,0,0,189.522,0,0,0
7070,-0.0351201,-0.0351201,0.0707,5.1803e-15,-1.6379e-15,-3.56609e-15,0,0,189.628,0,0,0
7080,-0.03517,-0.03517,0.0708,5.16262e-15,-1.70962e-15,-3.61591e-15,0,0,189.734,0,0,0
7090,-0.0352198,-0.0352198,0.0709,5.38419e-15,-1.70528e-15,-3.58664e-15,0,0,189.835,0,0,0
7100,-0.0352697,-0.0352697,0.071,5.42353e-15,-1.76217e-15,-3.49182e-15,0,0,189.938,0,0,0
7110,-0.0353196,-0.0353196,0.0711,5.32262e-15,-1.62095e-15,-3.36587e-15,0,0,190.045,0,0,0
7120,-0.0353695,-0.0353695,0.0712,5.29383e-15,-1.89017e-15,-3.47985e-15,0,0,190.152,0,0,0
7130,-0.0354193,-0.0354193,0.0713,5.15413e-15,-2.09831e-15,-3.51232e-15,0,0,190.251,0,0,0
7140,-0.0354692,-0.0354692,0.0714,5.05653e-15,-1.93858e-15,-3.82912e-15,0,0,190.362,0,0,0
7150,-0.0355191,-0.0355191,0.0715,5.25534e-15,-2.01567e-15,-3.71438e-15,0,0,190.46,0,0,0
7160,-0.035569,-0.035569,0.0716,5.72355e-15,-1.97081e-15,-3.87211e-15,0,0,190.564,0,0,0
7170,-0.0356188,-0.0356188,0.0717,5.65178e-15,-1.84377e-15,-3.83011e-15,0,0,190.669,0,0,0
7180,-0.0356687,-0.0356687,0.0718,5.65458e-15,-2.03683e-15,-3.75316e-15,0,0,190.773,0,0,0
7190,-0.0357186,-0.0357186,0.0719,5.76971e-15,-2.02243e-15,-3.68677e-15,0,0,190.877,0,0,0
7200,-0.0357685,-0.0357685,0.072,5.62903e-15,-2.34492e-15,-3.50171e-15,0,0,190.982,0,0,0
7210,-0.0358183,-0.0358183,0.0721,5.23289e-15,-2.13539e-15,-3.56508e-15,0,0,191.096,0,0,0
7220,-0.0358682,-0.0358682,0.0722,5.11897e-15,-2.18218e-15,-3.57143e-15,0,0,191.196,0,0,0
7230,-0.0359181,-0.0359181,0.0723,5.09539e-15,-2.34006e-15,-3.50102e-15,0,0,191.308,0,0,0
7240,-0.0359679,-0.0359679,0.0724,5.10334e-15,-1.9861e-15,-3.44305e-15,0,0,191.403,0,0,0
7250,-0.0360178,-0.0360178,0.0725,5.18491e-15,-2.05963e-15,-3.59802e-15,0,0,191.507,0,0,0
7260,-0.0360677,-0.0360677,0.0726,5.16091e-15,-2.08972e-15,-3.53624e-15,0,0,191.612,0,0,0
7270,-0.0361176,-0.0361176,0.0727,4.84791e-15,-2.23199e-15,-3.60921e-15,0,0,191.722,0,0,0
7280,-0.0361674,-0.0361674,0.0728,4.89951e-15,-2.14696e-15,-3.63971e-15,0,0,191.826,0,0,0
7290,-0.0362173,-0.0362173,0.0729,4.9993e-15,-2.24372e-15,-3.57225e-15,0,0,191.923,0,0,0
7300,-0.0362672,-0.0362672,0.073,4.99046e-15,-2.30805e-15,-3.52244e-15,0,0,192.041,0,0,0
7310,-0.0363171,-0.0363171,0.0731,5.08115e-15,-2.47428e-15,-3.48037e-15,0,0,192.136,0,0,0
7320,-0.0363669,-0.0363669,0.0732,4.98054e-15,-2.55834e-15,-3.28409e-15,0,0,192.232,0,0,0
7330,-0.0364168,-0.0364168,0.0733,5.15876e-15,-2.5841e-15,-3.30997e-15,0,0,192.337,0,0,0
7340,-0.0364667,-0.0364667,0.0734,5.1338e-15,-2.61496e-15,-3.32849e-15,0,0,192.446,0,0,0
7350,-0.0365166,-0.0365166,0.0735,4.99648e-15,-2.61199e-15,-3.38561e-15,0,0,192.545,0,0,0
7360,-0.0365664,-0.0365664,0.0736,4.95139e-15,-2.56357e-15,-3.30515e-15,0,0,192.654,0,0,0
7370,-0.0366163,-0.0366163,0.0737,5.08497e-15,-2.56042e-15,-3.49602e-15,0,0,192.759,0,0,0
7380,-0.0366662,-0.0366662,0.0738,5.33893e-15,-2.58983e-15,-3.69159e-15,0,0,192.857,0,0,0
7390,-0.036716,-0.036716,0.0739,5.47406e-15,-2.54865e-15,-3.60868e-15,0,0,192.97,0,0,0
7400,-0.0367659,-0.0367659,0.074,5.32303e-15,-2.57701e-15,-3.54219e-15,0,0,193.064,0,0,0
7410,-0.0368158,-0.0368158,0.0741,5.17955e-15,-2.64916e-15,-3.65053e-15,0,0,193.169,0,0,0
7420,-0.0368657,-0.0368657,0.0742,5.40393e-15,-2.70096e-15,-3.56067e-15,0,0,193.273,0,0,0
7430,-0.0369156,-0.0369155,0.0743,5.17515e-15,-2.7323e-15,-3.64054e-15,0,0,193.374,0,0,0
7440,-0.0369654,-0.0369654,0.0744,4.85374e-15,-2.72986e-15,-3.55766e-15,0,0,193.478,0,0,0
7450,-0.0370153,-0.0370153,0.0745,4.77753e-15,-2.76243e-15,-3.42989e-15,0,0,193.58,0,0,0
7460,-0.0370652,-0.0370652,0.0746,4.46298e-15,-2.78838e-15,-3.39656e-15,0,0,193.682,0,0,0
7470,-0.0371151,-0.0371151,0.0747,4.27579e-15,-2.79871e-15,-3.4194e-15,0,0,193.783,0,0,0
7480,-0.0371649,-0.0371649,0.0748,4.35207e-15,-2.91386e-15,-3.28322e-15,0,0,193.877,0,0,0
7490,-0.0372148,-0.0372148,0.0749,4.51778e-15,-3.00237e-15,-3.27739e-15,0,0,193.98,0,0,0
7500,-0.0372647,-0.0372647,0.075,4.4978e-15,-3.06986e-15,-3.42817e-15,0,0,194.08,0,0,0
7510,-0.0373146,-0.0373146,0.0751,4.76754e-15,-3.11088e-15,-3.50377e-15,0,0,194.181,0,0,0
7520,-0.0373645,-0.0373644,0.0752,4.93424e-15,-3.14049e-15,-3.30468e-15,0,0,194.284,0,0,0
7530,-0.0374143,-0.0374143,0.0753,4.40614e-15,-3.12555e-15,-3.24931e-15,0,0,194.383,0,0,0
7540,-0.0374642,-0.0374642,0.0754,4.57258e-15,-2.90577e-15,-3.3486e-15,0,0,194.484,0,0,0
7550,-0.0375141,-0.0375141,0.0755,4.26784e-15,-2.90913e-15,-3.44875e-15,0,0,194.585,0,0,0
7560,-0.037564,-0.037564,0.0756,4.06082e-15,-2.74497e-15,-3.42258e-15,0,0,194.684,0,0,0
7570,-0.0376138,-0.0376138,0.0757,4.11028e-15,-2.92847e-15,-3.40154e-15,0,0,194.793,0,0,0
7580,-0.0376637,-0.0376637,0.0758,4.12729e-15,-3.07461e-15,-3.58929e-15,0,0,194.896,0,0,0
7590,-0.0377136,-0.0377136,0.0759,3.92209e-15,-2.94952e-15,-3.61638e-15,0,0,194.988,0,0,0
7600,-0.0377635,-0.0377635,0.076,3.65867e-15,-2.92579e-15,-3.63888e-15,0,0,195.088,0,0,0
7610,-0.0378134,-0.0378133,0.0761,3.50294e-15,-2.94073e-15,-3.53897e-15,0,0,195.189,0,0,0
7620,-0.0378632,-0.0378632,0.0762,3.44542e-15,-3.02305e-15,-3.49445e-15,0,0,195.289,0,0,0
7630,-0.0379131,-0.0379131,0.0763,3.34378e-15,-2.91327e-15,-3.34991e-15,0,0,195.389,0,0,0
7640,-0.037963,-0.037963,0.0764,3.20485e-15,-2.8604e-15,-3.2571e-15,0,0,195.497,0,0,0
7650,-0.0380129,-0.0380129,0.0765,3.39995e-15,-3.13623e-15,-3.08488e-15,0,0,195.591,0,0,0
7660,-0.0380627,-0.0380627,0.0766,3.42967e-15,-3.01513e-15,-3.19956e-15,0,0,195.691,0,0,0
7670,-0.0381126,-0.0381126,0.0767,3.56256e-15,-2.96364e-15,-3.19991e-15,0,0,195.799,0,0,0
7680,-0.0381625,-0.0381625,0.0768,3.53398e-15,-3.04494e-15,-3.2244e-15,0,0,195.891,0,0,0
7690,-0.0382124,-0.0382124,0.0769,3.96699e-15,-2.97989e-15,-3.02531e-15,0,0,195.999,0,0,0
7700,-0.0382623,-0.0382623,0.077,4.25579e-15,-2.94111e-15,-3.03279e-15,0,0,196.09,0,0,0
7710,-0.0383121,-0.0383121,0.0771,3.67324e-15,-2.73618e-15,-3.06473e-15,0,0,196.186,0,0,0
7720,-0.038362,-0.038362,0.0772,3.8803e-15,-2.87887e-15,-3.0735e-15,0,0,196.286,0,0,0
7730,-0.0384119,-0.0384119,0.0773,3.5365e-15,-2.93915e-15,-3.24569e-15,0,0,196.385,0,0,0
7740,-0.0384618,-0.0384618,0.0774,3.50743e-15,-2.83353e-15,-3.35663e-15,0,0,196.493,0,0,0
7750,-0.0385116,-0.0385116,0.0775,3.57627e-15,-3.03865e-15,-3.36991e-15,0,0,196.597,0,0,0
7760,-0.0385615,-0.0385615,0.0776,3.66767e-15,-2.93322e-15,-3.30246e-15,0,0,196.687,0,0,0
7770,-0.0386114,-0.0386114,0.0777,3.9922e-15,-2.97313e-15,-3.6679e-15,0,0,196.786,0,0,0
7780,-0.0386613,-0.0386613,0.0778,4.06037e-15,-2.84655e-15,-3.8721e-15,0,0,196.89,0,0,0
7790,-0.0387112,-0.0387112,0.0779,4.03423e-15,-2.91883e-15,-3.62552e-15,0,0,196.982,0,0,0
7800,-0.0387611,-0.038761,0.078,4.12534e-15,-2.85471e-15,-3.53977e-15,0,0,197.088,0,0,0
7810,-0.0388109,-0.0388109,0.0781,3.92774e-15,-2.80584e-15,-3.39079e-15,0,0,197.178,0,0,0
7820,-0.0388608,-0.0388608,0.0782,3.71162e-15,-2.86348e-15,-3.42269e-15,0,0,197.283,0,0,0
7830,-0.0389107,-0.0389107,0.0783,3.65736e-15,-2.83487e-15,-3.39806e-15,0,0,197.375,0,0,0
7840,-0.0389606,-0.0389606,0.0784,3.51135e-15,-2.84567e-15,-3.60424e-15,0,0,197.473,0,0,0
7850,-0.0390105,-0.0390105,0.0785,3.5248e-15,-2.84311e-15,-3.5428e-15,0,0,197.571,0,0,0
7860,-0.0390603,-0.0390603,0.0786,3.31013e-15,-2.74558e-15,-3.69711e-15,0,0,197.669,0,0,0
7870,-0.0391102,-0.0391102,0.0787,3.61619e-15,-2.74403e-15,-3.94618e-15,0,0,197.765,0,0,0
7880,-0.0391601,-0.0391601,0.0788,3.48162e-15,-3.09525e-15,-3.77529e-15,0,0,197.863,0,0,0
7890,-0.03921,-0.03921,0.0789,3.75498e-15,-3.0182e-15,-3.79555e-15,0,0,197.961,0,0,0
7900,-0.0392599,-0.0392599,0.079,3.76945e-15,-2.90637e-15,-3.66794e-15,0,0,198.067,0,0,0
7910,-0.0393098,-0.0393097,0.0791,3.51074e-15,-2.77472e-15,-3.6386e-15,0,0,198.156,0,0,0
7920,-0.0393596,-0.0393596,0.0792,3.71528e-15,-2.75843e-15,-3.47418e-15,0,0,198.263,0,0,0
7930,-0.0394095,-0.0394095,0.0793,3.65734e-15,-2.95024e-15,-3.43507e-15,0,0,198.351,0,0,0
7940,-0.0394594,-0.0394594,0.0794,3.86624e-15,-3.00529e-15,-3.42815e-15,0,0,198.45,0,0,0
7950,-0.0395093,-0.0395093,0.0795,3.81829e-15,-2.87383e-15,-3.41702e-15,0,0,198.553,0,0,0
7960,-0.0395592,-0.0395591,0.0796,4.02159e-15,-3.10539e-15,-3.31135e-15,0,0,198.651,0,0,0
7970,-0.039609,-0.039609,0.0797,4.09246e-15,-3.17789e-15,-3.35298e-15,0,0,198.749,0,0,0
7980,-0.0396589,-0.0396589,0.0798,3.94937e-15,-3.14978e-15,-3.25495e-15,0,0,198.846,0,0,0
7990,-0.0397088,-0.0397088,0.0799,3.96314e-15,-3.30264e-15,-3.33462e-15,0,0,198.944,0,0,0
8000,-0.0397587,-0.0397587,0.08,3.979e-15,-3.33256e-15,-3.24894e-15,0,0,199.039,0,0,0
8010,-0.0398086,-0.0398086,0.0801,4.1384e-15,-3.24395e-15,-3.33818e-15,0,0,199.137,0,0,0
8020,-0.0398585,-0.0398584,0.0802,4.18466e-15,-3.12448e-15,-3.29719e-15,0,0,199.23,0,0,0
8030,-0.0399083,-0.0399083,0.0803,4.28404e-15,-2.95379e-15,-3.27878e-15,0,0,199.327,0,0,0
8040,-0.0399582,-0.0399582,0.0804,4.14548e-15,-2.95517e-15,-3.37258e-15,0,0,199.418,0,0,0
8050,-0.0400081,-0.0400081,0.0805,4.24388e-15,-2.99074e-15,-3.15512e-15,0,0,199.513,0,0,0
8060,-0.040058,-0.040058,0.0806,4.52205e-15,-2.97236e-15,-2.98595e-15,0,0,199.609,0,0,0
8070,-0.0401079,-0.0401079,0.0807,4.59807e-15,-3.07337e-15,-3.08384e-15,0,0,199.711,0,0,0
8080,-0.0401578,-0.0401578,0.0808,4.82799e-15,-3.17265e-15,-3.13066e-15,0,0,199.801,0,0,0
8090,-0.0402076,-0.0402076,0.0809,5.09837e-15,-3.03449e-15,-3.09138e-15,0,0,199.903,0,0,0
8101,-0.0402625,-0.0402625,0.08101,5.16994e-15,-3.00976e-15,-3.07222e-15,0,0,200.002,0,0,0
8111,-0.0403124,-0.0403124,0.08111,5.34397e-15,-2.98386e-15,-3.15587e-15,0,0,200.098,0,0,0
8121,-0.0403623,-0.0403623,0.08121,5.31664e-15,-2.96137e-15,-3.27234e-15,0,0,200.193,0,0,0
8130.67,-0.0404105,-0.0404105,0.0813067,5.17396e-15,-3.10752e-15,-3.30228e-15,0,0,200.289,0,0,0
8140.67,-0.0404604,-0.0404604,0.0814067,5.34929e-15,-2.80605e-15,-3.16163e-15,0,0,200.384,0,0,0
8151,-0.0405119,-0.0405119,0.08151,5.51423e-15,-2.98511e-15,-3.06627e-15,0,0,200.48,0,0,0
8161,-0.0405618,-0.0405618,0.08161,5.91038e-15,-2.99206e-15,-2.96118e-15,0,0,200.575,0,0,0
8171,-0.0406117,-0.0406117,0.08171,6.23103e-15,-2.98578e-15,-3.08492e-15,0,0,200.67,0,0,0
8181,-0.0406616,-0.0406616,0.08181,6.19639e-15,-2.85073e-15,-3.1016e-15,0,0,200.765,0,0,0
8191,-0.0407115,-0.0407115,0.08191,6.30756e-15,-2.96911e-15,-3.15187e-15,0,0,200.86,0,0,0
8201,-0.0407614,-0.0407614,0.08201,6.7002e-15,-3.12992e-15,-3.1181e-15,0,0,200.955,0,0,0
8211,-0.0408112,-0.0408112,0.08211,6.64923e-15,-3.09539e-15,-2.98946e-15,0,0,201.05,0,0,0
8220.43,-0.0408583,-0.0408583,0.0822043,6.85897e-15,-3.10115e-15,-3.06115e-15,0,0,201.148,0,0,0
8230.67,-0.0409094,-0.0409093,0.0823067,6.7873e-15,-3.20945e-15,-3.17988e-15,0,0,201.237,0,0,0
8241,-0.0409609,-0.0409609,0.08241,7.10885e-15,-3.10398e-15,-2.95981e-15,0,0,201.332,0,0,0
8250.19,-0.0410067,-0.0410067,0.0825019,7.12347e-15,-2.96013e-15,-2.89822e-15,0,0,201.429,0,0,0
8260.67,-0.041059,-0.041059,0.0826067,7.08915e-15,-2.93372e-15,-2.88353e-15,0,0,201.524,0,0,0
8270.68,-0.041109,-0.0411089,0.0827068,6.95018e-15,-3.04131e-15,-2.86009e-15,0,0,201.618,0,0,0
8280.2,-0.0411564,-0.0411564,0.082802,7.11001e-15,-3.05914e-15,-2.79926e-15,0,0,201.711,0,0,0
8290.2,-0.0412063,-0.0412063,0.082902,7.07524e-15,-3.05521e-15,-2.8694e-15,0,0,201.805,0,0,0
8300.67,-0.0412586,-0.0412585,0.0830067,7.02983e-15,-3.05906e-15,-2.74598e-15,0,0,201.9,0,0,0
8310.3,-0.0413066,-0.0413066,0.083103,7.08291e-15,-3.08508e-15,-2.76147e-15,0,0,201.993,0,0,0
8321,-0.04136,-0.04136,0.08321,7.4706e-15,-3.0246e-15,-2.73916e-15,0,0,202.089,0,0,0
8330.86,-0.0414092,-0.0414092,0.0833086,7.76115e-15,-3.04884e-15,-2.80677e-15,0,0,202.187,0,0,0
8341,-0.0414598,-0.0414598,0.08341,7.74479e-15,-2.91521e-15,-2.98239e-15,0,0,202.278,0,0,0
8351,-0.0415096,-0.0415096,0.08351,7.84446e-15,-2.7482e-15,-2.87747e-15,0,0,202.371,0,0,0
8361,-0.0415595,-0.0415595,0.08361,8.0885e-15,-2.87274e-15,-2.74454e-15,0,0,202.465,0,0,0
8371,-0.0416094,-0.0416094,0.08371,7.99448e-15,-3.0102e-15,-2.80218e-15,0,0,202.558,0,0,0
8381,-0.0416593,-0.0416593,0.08381,7.97695e-15,-3.01543e-15,-2.8089e-15,0,0,202.652,0,0,0
8391,-0.0417092,-0.0417092,0.08391,8.17904e-15,-2.90892e-15,-2.85515e-15,0,0,202.745,0,0,0
8400.18,-0.041755,-0.041755,0.0840018,8.17079e-15,-2.92852e-15,-2.8649e-15,0,0,202.838,0,0,0
8410.39,-0.0418059,-0.0418059,0.0841039,8.17489e-15,-2.96174e-15,-2.87633e-15,0,0,202.931,0,0,0
8420.21,-0.0418549,-0.0418549,0.0842021,8.38452e-15,-2.89089e-15,-2.77386e-15,0,0,203.014,0,0,0
8431,-0.0419087,-0.0419087,0.08431,8.23644e-15,-2.95828e-15,-2.8069e-15,0,0,203.116,0,0,0
8441,-0.0419586,-0.0419586,0.08441,8.09718e-15,-3.03849e-15,-2.6673e-15,0,0,203.209,0,0,0
8451,-0.0420085,-0.0420085,0.08451,8.24559e-15,-3.26444e-15,-2.49235e-15,0,0,203.301,0,0,0
8460.13,-0.0420541,-0.0420541,0.0846013,8.32754e-15,-3.20278e-15,-2.48259e-15,0,0,203.392,0,0,0
8470.3,-0.0421048,-0.0421048,0.084703,8.00861e-15,-3.21444e-15,-2.36382e-15,0,0,203.485,0,0,0
8480.85,-0.0421574,-0.0421574,0.0848085,7.65308e-15,-3.27692e-15,-2.23057e-15,0,0,203.581,0,0,0
8490.67,-0.0422064,-0.0422064,0.0849067,7.87025e-15,-3.036e-15,-2.21343e-15,0,0,203.672,0,0,0
8500.19,-0.0422539,-0.0422539,0.0850019,7.84088e-15,-3.04205e-15,-2.25199e-15,0,0,203.764,0,0,0
8510.67,-0.0423062,-0.0423062,0.0851067,7.63632e-15,-3.20835e-15,-2.33415e-15,0,0,203.855,0,0,0
8520.67,-0.0423561,-0.0423561,0.0852067,7.43556e-15,-3.15582e-15,-2.44323e-15,0,0,203.947,0,0,0
8530.19,-0.0424035,-0.0424035,0.0853019,7.51995e-15,-3.2318e-15,-2.40084e-15,0,0,204.039,0,0,0
8541,-0.0424575,-0.0424575,0.08541,7.44322e-15,-3.08802e-15,-2.52894e-15,0,0,204.131,0,0,0
8551,-0.0425074,-0.0425074,0.08551,7.13971e-15,-3.03745e-15,-2.54243e-15,0,0,204.223,0,0,0
8560.67,-0.0425556,-0.0425556,0.0856067,7.16719e-15,-3.28356e-15,-2.59871e-15,0,0,204.314,0,0,0
8571,-0.0426072,-0.0426072,0.08571,7.32449e-15,-3.29705e-15,-2.70438e-15,0,0,204.406,0,0,0
8581,-0.0426571,-0.0426571,0.08581,7.42759e-15,-3.11764e-15,-2.70684e-15,0,0,204.497,0,0,0
8591,-0.042707,-0.0427069,0.08591,7.70713e-15,-3.08025e-15,-2.64703e-15,0,0,204.589,0,0,0
8601,-0.0427568,-0.0427568,0.08601,7.77379e-15,-2.93861e-15,-2.57637e-15,0,0,204.68,0,0,0
8611,-0.0428067,-0.0428067,0.08611,7.66501e-15,-3.02966e-15,-2.64301e-15,0,0,204.771,0,0,0
8620.67,-0.042855,-0.042855,0.0862067,7.58144e-15,-3.02999e-15,-2.59656e-15,0,0,204.862,0,0,0
8631,-0.0429065,-0.0429065,0.08631,7.4773e-15,-3.13531e-15,-2.56604e-15,0,0,204.955,0,0,0
8640.67,-0.0429547,-0.0429547,0.0864067,7.27553e-15,-3.16317e-15,-2.4498e-15,0,0,205.046,0,0,0
8651,-0.0430063,-0.0430063,0.08651,7.0733e-15,-3.21855e-15,-2.58852e-15,0,0,205.137,0,0,0
8661,-0.0430562,-0.0430562,0.08661,7.3971e-15,-3.20776e-15,-2.54993e-15,0,0,205.227,0,0,0
8671,-0.0431061,-0.0431061,0.08671,7.59002e-15,-3.13478e-15,-2.54826e-15,0,0,205.318,0,0,0
8680.67,-0.0431543,-0.0431543,0.0868067,7.79454e-15,-3.17319e-15,-2.71638e-15,0,0,205.408,0,0,0
8691,-0.0432059,-0.0432058,0.08691,8.03315e-15,-3.09433e-15,-2.69e-15,0,0,205.499,0,0,0
8701,-0.0432557,-0.0432557,0.08701,8.08331e-15,-3.07776e-15,-2.72323e-15,0,0,205.589,0,0,0
8711,-0.0433056,-0.0433056,0.08711,8.055e-15,-3.02942e-15,-2.73838e-15,0,0,205.68,0,0,0
8721,-0.0433555,-0.0433555,0.08721,8.26808e-15,-2.92919e-15,-2.58772e-15,0,0,205.77,0,0,0
8730.2,-0.0434014,-0.0434014,0.087302,8.18155e-15,-3.1451e-15,-2.63338e-15,0,0,205.859,0,0,0
8740.67,-0.0434536,-0.0434536,0.0874067,8.00298e-15,-3.21989e-15,-2.68203e-15,0,0,205.95,0,0,0
8750.67,-0.0435035,-0.0435035,0.0875067,8.0939e-15,-3.10239e-15,-2.63523e-15,0,0,206.04,0,0,0
8761,-0.0435551,-0.0435551,0.08761,8.22634e-15,-2.93374e-15,-2.70158e-15,0,0,206.13,0,0,0
8771,-0.043605,-0.043605,0.08771,8.11353e-15,-2.81951e-15,-2.83589e-15,0,0,206.22,0,0,0
8781,-0.0436549,-0.0436549,0.08781,8.3448e-15,-2.8458e-15,-2.92107e-15,0,0,206.31,0,0,0
8791,-0.0437048,-0.0437048,0.08791,8.49315e-15,-2.71996e-15,-2.90614e-15,0,0,206.399,0,0,0
8800.56,-0.0437524,-0.0437524,0.0880056,8.63385e-15,-2.74228e-15,-3.07034e-15,0,0,206.489,0,0,0
8811,-0.0438045,-0.0438045,0.08811,8.94844e-15,-2.84387e-15,-3.12574e-15,0,0,206.578,0,0,0
8820.67,-0.0438528,-0.0438528,0.0882067,8.79891e-15,-2.707e-15,-3.1623e-15,0,0,206.668,0,0,0
8831,-0.0439043,-0.0439043,0.08831,9.04851e-15,-2.80932e-15,-3.10476e-15,0,0,206.757,0,0,0
8840.3,-0.0439507,-0.0439507,0.088403,9.01999e-15,-2.72515e-15,-3.08724e-15,0,0,206.846,0,0,0
8851,-0.0440041,-0.0440041,0.08851,9.12038e-15,-2.85183e-15,-3.0708e-15,0,0,206.935,0,0,0
8860.06,-0.0440493,-0.0440493,0.0886006,9.15532e-15,-2.70479e-15,-2.97993e-15,0,0,207.021,0,0,0
8870.67,-0.0441022,-0.0441022,0.0887067,9.38972e-15,-2.67011e-15,-2.83736e-15,0,0,207.113,0,0,0
8880.06,-0.0441491,-0.0441491,0.0888006,9.63247e-15,-2.6237e-15,-2.80995e-15,0,0,207.201,0,0,0
8890.37,-0.0442005,-0.0442005,0.0889037,9.62796e-15,-2.73225e-15,-2.91269e-15,0,0,207.292,0,0,0
8900.56,-0.0442513,-0.0442513,0.0890056,9.4477e-15,-2.67179e-15,-2.87647e-15,0,0,207.38,0,0,0
8910.67,-0.0443018,-0.0443018,0.0891067,9.40748e-15,-2.67024e-15,-2.71221e-15,0,0,207.468,0,0,0
8920.33,-0.04435,-0.04435,0.0892033,9.21279e-15,-2.58901e-15,-2.70591e-15,0,0,207.554,0,0,0
8930.67,-0.0444016,-0.0444016,0.0893067,9.44512e-15,-2.64947e-15,-2.73881e-15,0,0,207.643,0,0,0
8940.67,-0.0444515,-0.0444515,0.0894067,9.37868e-15,-2.66304e-15,-2.72246e-15,0,0,207.73,0,0,0
8950.67,-0.0445014,-0.0445014,0.0895067,9.11164e-15,-2.72976e-15,-2.72421e-15,0,0,207.818,0,0,0
8961,-0.0445529,-0.0445529,0.08961,8.80896e-15,-2.645e-15,-2.55118e-15,0,0,207.905,0,0,0
8970.67,-0.0446012,-0.0446012,0.0897067,8.74498e-15,-2.69745e-15,-2.70039e-15,0,0,207.993,0,0,0
8981,-0.0446527,-0.0446527,0.08981,8.8524e-15,-2.75213e-15,-2.85078e-15,0,0,208.082,0,0,0
8990.37,-0.0446995,-0.0446995,0.0899037,9.14419e-15,-2.82233e-15,-2.94102e-15,0,0,208.17,0,0,0
9001,-0.0447525,-0.0447525,0.09001,8.81514e-15,-2.85177e-15,-2.76124e-15,0,0,208.257,0,0,0
9010.23,-0.0447985,-0.0447985,0.0901023,8.71747e-15,-2.7924e-15,-2.77141e-15,0,0,208.345,0,0,0
9021,-0.0448523,-0.0448523,0.09021,8.84841e-15,-2.83827e-15,-2.66176e-15,0,0,208.433,0,0,0
9031,-0.0449022,-0.0449022,0.09031,8.35835e-15,-2.80522e-15,-2.89796e-15,0,0,208.52,0,0,0
9040.74,-0.0449508,-0.0449508,0.0904074,8.22338e-15,-2.7061e-15,-3.03856e-15,0,0,208.608,0,0,0
9050.67,-0.0450003,-0.0450003,0.0905067,8.06042e-15,-2.75266e-15,-3.0652e-15,0,0,208.695,0,0,0
9061,-0.0450519,-0.0450519,0.09061,7.82347e-15,-2.70981e-15,-3.14048e-15,0,0,208.783,0,0,0
9071,-0.0451018,-0.0451018,0.09071,7.97119e-15,-2.85721e-15,-3.07054e-15,0,0,208.87,0,0,0
9080.67,-0.04515,-0.04515,0.0908067,7.87813e-15,-2.85919e-15,-2.98775e-15,0,0,208.958,0,0,0
9090.56,-0.0451993,-0.0451993,0.0909056,7.64376e-15,-2.88476e-15,-2.81922e-15,0,0,209.045,0,0,0
9101,-0.0452514,-0.0452514,0.09101,7.52061e-15,-2.75941e-15,-2.92049e-15,0,0,209.132,0,0,0
9110.67,-0.0452997,-0.0452997,0.0911067,7.39309e-15,-2.77267e-15,-3.02217e-15,0,0,209.219,0,0,0
9120.67,-0.0453496,-0.0453496,0.0912067,7.1697e-15,-2.94463e-15,-2.9866e-15,0,0,209.306,0,0,0
9131,-0.0454011,-0.0454011,0.09131,7.30741e-15,-3.15162e-15,-2.78723e-15,0,0,209.392,0,0,0
9141,-0.045451,-0.045451,0.09141,7.44088e-15,-2.99447e-15,-2.746e-15,0,0,209.479,0,0,0
9150.3,-0.0454974,-0.0454974,0.091503,7.25076e-15,-3.05743e-15,-2.64193e-15,0,0,209.566,0,0,0
9161,-0.0455508,-0.0455508,0.09161,7.19135e-15,-3.04541e-15,-2.57163e-15,0,0,209.652,0,0,0
9170.67,-0.045599,-0.045599,0.0917067,7.30367e-15,-3.0931e-15,-2.54692e-15,0,0,209.738,0,0,0
9181,-0.0456506,-0.0456506,0.09181,7.34799e-15,-3.05563e-15,-2.66673e-15,0,0,209.825,0,0,0
9191,-0.0457005,-0.0457005,0.09191,7.52021e-15,-3.11495e-15,-2.75954e-15,0,0,209.911,0,0,0
9200.67,-0.0457487,-0.0457487,0.0920067,7.56789e-15,-3.14125e-15,-2.74956e-15,0,0,209.997,0,0,0
9210.22,-0.0457964,-0.0457964,0.0921022,7.71992e-15,-3.04327e-15,-2.78385e-15,0,0,210.084,0,0,0
9221,-0.0458502,-0.0458502,0.09221,7.7803e-15,-3.13791e-15,-2.92568e-15,0,0,210.17,0,0,0
9230.3,-0.0458966,-0.0458966,0.092303,7.68277e-15,-3.21589e-15,-2.91316e-15,0,0,210.255,0,0,0
9241,-0.04595,-0.04595,0.09241,7.95678e-15,-3.1569e-15,-2.79801e-15,0,0,210.342,0,0,0
9251,-0.0459999,-0.0459999,0.09251,7.84962e-15,-3.10068e-15,-2.91159e-15,0,0,210.427,0,0,0
9260.67,-0.0460481,-0.0460481,0.0926067,8.02201e-15,-3.17901e-15,-2.82383e-15,0,0,210.513,0,0,0
9271,-0.0460997,-0.0460997,0.09271,8.06981e-15,-3.10342e-15,-2.84971e-15,0,0,210.599,0,0,0
9281,-0.0461496,-0.0461496,0.09281,8.41802e-15,-3.16705e-15,-2.80923e-15,0,0,210.684,0,0,0
9291,-0.0461995,-0.0461995,0.09291,8.30334e-15,-3.14436e-15,-2.90264e-15,0,0,210.77,0,0,0
9301,-0.0462494,-0.0462494,0.09301,8.09985e-15,-3.18887e-15,-2.9927e-15,0,0,210.855,0,0,0
9311,-0.0462992,-0.0462993,0.09311,8.31273e-15,-3.00844e-15,-2.78304e-15,0,0,210.941,0,0,0
9321,-0.0463491,-0.0463491,0.09321,8.14332e-15,-3.10217e-15,-2.88688e-15,0,0,211.026,0,0,0
9330.81,-0.0463981,-0.0463981,0.0933081,8.18385e-15,-3.2476e-15,-2.90048e-15,0,0,211.111,0,0,0
9341,-0.0464489,-0.0464489,0.09341,8.26709e-15,-3.19566e-15,-2.9062e-15,0,0,211.196,0,0,0
9351,-0.0464988,-0.0464988,0.09351,8.60525e-15,-3.12236e-15,-2.78145e-15,0,0,211.281,0,0,0
9361,-0.0465487,-0.0465487,0.09361,8.81099e-15,-3.0738e-15,-2.86139e-15,0,0,211.366,0,0,0
9371,-0.0465986,-0.0465986,0.09371,8.80136e-15,-3.18726e-15,-2.90492e-15,0,0,211.451,0,0,0
9380.56,-0.0466463,-0.0466463,0.0938056,8.75211e-15,-3.22244e-15,-2.72095e-15,0,0,211.536,0,0,0
9391,-0.0466984,-0.0466984,0.09391,8.80994e-15,-3.08531e-15,-2.82701e-15,0,0,211.619,0,0,0
9401,-0.0467483,-0.0467483,0.09401,8.88896e-15,-3.18578e-15,-2.89205e-15,0,0,211.704,0,0,0
9411,-0.0467982,-0.0467982,0.09411,8.82515e-15,-3.16857e-15,-2.97109e-15,0,0,211.789,0,0,0
9421,-0.0468481,-0.0468481,0.09421,9.15091e-15,-3.22669e-15,-2.96945e-15,0,0,211.873,0,0,0
9431,-0.046898,-0.046898,0.09431,9.38634e-15,-3.47497e-15,-3.06594e-15,0,0,211.957,0,0,0
9440.67,-0.0469462,-0.0469462,0.0944067,9.51967e-15,-3.45429e-15,-3.0661e-15,0,0,212.042,0,0,0
9450.67,-0.0469961,-0.0469961,0.0945067,9.38953e-15,-3.42359e-15,-3.02924e-15,0,0,212.126,0,0,0
9461,-0.0470477,-0.0470477,0.09461,9.37745e-15,-3.34912e-15,-3.00171e-15,0,0,212.21,0,0,0
9470.2,-0.0470936,-0.0470936,0.094702,9.19232e-15,-3.48083e-15,-3.01491e-15,0,0,212.293,0,0,0
9481,-0.0471475,-0.0471475,0.09481,9.18321e-15,-3.2513e-15,-2.91861e-15,0,0,212.378,0,0,0
9490.67,-0.0471957,-0.0471957,0.0949067,9.09912e-15,-3.25891e-15,-2.95357e-15,0,0,212.461,0,0,0
9500.53,-0.047245,-0.047245,0.0950053,9.19088e-15,-3.18643e-15,-3.08378e-15,0,0,212.546,0,0,0
9510.3,-0.0472937,-0.0472937,0.095103,9.00798e-15,-3.23e-15,-2.89346e-15,0,0,212.629,0,0,0
9520.56,-0.0473449,-0.0473449,0.0952056,9.18502e-15,-3.17031e-15,-2.94641e-15,0,0,212.714,0,0,0
9530.3,-0.0473935,-0.0473935,0.095303,9.13421e-15,-3.07002e-15,-2.98598e-15,0,0,212.798,0,0,0
9541,-0.0474469,-0.0474469,0.09541,9.09156e-15,-3.00647e-15,-2.87215e-15,0,0,212.881,0,0,0
9550.67,-0.0474951,-0.0474951,0.0955067,9.12873e-15,-2.92778e-15,-3.10125e-15,0,0,212.964,0,0,0
9560.67,-0.047545,-0.047545,0.0956067,9.09823e-15,-2.83548e-15,-3.15974e-15,0,0,213.047,0,0,0
9571,-0.0475966,-0.0475966,0.09571,9.12751e-15,-2.78942e-15,-2.92548e-15,0,0,213.131,0,0,0
9581,-0.0476465,-0.0476465,0.09581,9.05858e-15,-2.7069e-15,-2.96913e-15,0,0,213.214,0,0,0
9590.25,-0.0476926,-0.0476926,0.0959025,8.79337e-15,-2.79482e-15,-2.88988e-15,0,0,213.297,0,0,0
9601,-0.0477463,-0.0477463,0.09601,8.64333e-15,-2.80917e-15,-3.03743e-15,0,0,213.38,0,0,0
9611,-0.0477962,-0.0477962,0.09611,8.5995e-15,-2.80614e-15,-2.96821e-15,0,0,213.463,0,0,0
9621,-0.0478461,-0.0478461,0.09621,8.54121e-15,-2.86306e-15,-2.86574e-15,0,0,213.546,0,0,0
9631,-0.047896,-0.047896,0.09631,8.72315e-15,-2.73393e-15,-2.86059e-15,0,0,213.628,0,0,0
9641,-0.0479459,-0.0479459,0.09641,8.59716e-15,-2.61447e-15,-2.88564e-15,0,0,213.711,0,0,0
9651,-0.0479958,-0.0479958,0.09651,8.68835e-15,-2.7409e-15,-2.90703e-15,0,0,213.794,0,0,0
9661,-0.0480457,-0.0480457,0.09661,8.67472e-15,-2.68599e-15,-2.73941e-15,0,0,213.876,0,0,0
9671,-0.0480956,-0.0480956,0.09671,8.55845e-15,-2.73557e-15,-2.78587e-15,0,0,213.958,0,0,0
9681,-0.0481455,-0.0481455,0.09681,8.40846e-15,-2.7468e-15,-2.7305e-15,0,0,214.041,0,0,0
9691,-0.0481954,-0.0481954,0.09691,8.3796e-15,-2.70303e-15,-2.80534e-15,0,0,214.123,0,0,0
9701,-0.0482453,-0.0482453,0.09701,8.33558e-15,-2.83077e-15,-2.71927e-15,0,0,214.205,0,0,0
9710.67,-0.0482935,-0.0482935,0.0971067,8.52013e-15,-2.83304e-15,-2.66597e-15,0,0,214.287,0,0,0
9721,-0.0483451,-0.0483451,0.09721,8.49583e-15,-2.92853e-15,-2.6114e-15,0,0,214.369,0,0,0
9731,-0.048395,-0.048395,0.09731,8.47909e-15,-2.93324e-15,-2.70997e-15,0,0,214.451,0,0,0
9741,-0.0484449,-0.0484449,0.09741,8.45023e-15,-2.80622e-15,-2.63819e-15,0,0,214.533,0,0,0
9751,-0.0484948,-0.0484948,0.09751,8.45348e-15,-2.80744e-15,-2.7246e-15,0,0,214.615,0,0,0
9761,-0.0485447,-0.0485447,0.09761,8.32039e-15,-2.95478e-15,-2.75146e-15,0,0,214.697,0,0,0
9770.3,-0.0485911,-0.0485911,0.097703,8.61822e-15,-2.93974e-15,-2.81827e-15,0,0,214.778,0,0,0
9781,-0.0486445,-0.0486445,0.09781,8.56145e-15,-2.92806e-15,-2.95787e-15,0,0,214.86,0,0,0
9791,-0.0486944,-0.0486944,0.09791,8.43161e-15,-3.06125e-15,-2.96504e-15,0,0,214.942,0,0,0
9801,-0.0487443,-0.0487443,0.09801,8.62781e-15,-2.9789e-15,-2.90383e-15,0,0,215.022,0,0,0
9811,-0.0487942,-0.0487942,0.09811,9.04642e-15,-3.05107e-15,-3.04125e-15,0,0,215.104,0,0,0
9821,-0.0488441,-0.0488441,0.09821,9.28892e-15,-2.85144e-15,-3.0402e-15,0,0,215.185,0,0,0
9830.67,-0.0488923,-0.0488923,0.0983067,9.13321e-15,-2.83648e-15,-3.07598e-15,0,0,215.265,0,0,0
9840.67,-0.0489422,-0.0489422,0.0984067,9.3469e-15,-2.9983e-15,-3.12208e-15,0,0,215.346,0,0,0
9850.67,-0.0489921,-0.0489921,0.0985067,9.5632e-15,-2.93991e-15,-2.98698e-15,0,0,215.426,0,0,0
9861,-0.0490437,-0.0490437,0.09861,9.53156e-15,-3.01928e-15,-2.93873e-15,0,0,215.507,0,0,0
9870.3,-0.0490901,-0.0490901,0.098703,9.66963e-15,-3.06437e-15,-3.0238e-15,0,0,215.588,0,0,0
9880.3,-0.04914,-0.04914,0.098803,9.57558e-15,-3.05918e-15,-3.0647e-15,0,0,215.669,0,0,0
9890.2,-0.0491894,-0.0491894,0.098902,9.64032e-15,-3.10808e-15,-3.20799e-15,0,0,215.75,0,0,0
9901,-0.0492433,-0.0492433,0.09901,9.68096e-15,-2.97147e-15,-3.05086e-15,0,0,215.831,0,0,0
9911,-0.0492932,-0.0492932,0.09911,9.56256e-15,-3.0282e-15,-2.91692e-15,0,0,215.912,0,0,0
9920.67,-0.0493415,-0.0493415,0.0992067,9.34503e-15,-2.93918e-15,-2.89532e-15,0,0,215.992,0,0,0
9931,-0.049393,-0.049393,0.09931,9.03876e-15,-3.00581e-15,-2.87637e-15,0,0,216.073,0,0,0
9940.67,-0.0494413,-0.0494413,0.0994067,8.90587e-15,-2.73819e-15,-2.99474e-15,0,0,216.153,0,0,0
9950.67,-0.0494912,-0.0494912,0.0995067,8.9841e-15,-2.6888e-15,-2.85206e-15,0,0,216.233,0,0,0
9961,-0.0495427,-0.0495427,0.09961,8.70139e-15,-2.95983e-15,-2.88411e-15,0,0,216.313,0,0,0
9971,-0.0495926,-0.0495926,0.09971,8.77856e-15,-2.93137e-15,-2.8431e-15,0,0,216.394,0,0,0
9980.67,-0.0496409,-0.0496409,0.0998067,8.5997e-15,-2.78114e-15,-2.73699e-15,0,0,216.474,0,0,0
9991,-0.0496924,-0.0496924,0.09991,8.61519e-15,-2.80758e-15,-2.67059e-15,0,0,216.553,0,0,0
10001,-0.0497423,-0.0497423,0.10001,8.54063e-15,-2.73727e-15,-2.79042e-15,0,0,216.633,0,0,0
