time,e11,e22,e33,e12,e13,e23,s11,s22,s33,s12,s13,s23
0,0,0,0,0,0,0,0,0,0,0,0,0
100,-0.00038876,-0.000389238,0.001,-0.00049093,-2.32771e-15,2.95012e-15,0,0,91.5658,0,0,0
200,-0.000885803,-0.000887757,0.002,-0.000990748,-5.74554e-15,-1.83196e-15,0,0,93.396,0,0,0
300,-0.00138231,-0.00138674,0.003,-0.00149056,-5.19247e-15,1.8848e-15,0,0,95.2527,0,0,0
400,-0.00187831,-0.00188622,0.004,-0.00199037,-1.84677e-15,6.25898e-15,0,0,97.1218,0,0,0
500,-0.00237381,-0.00238619,0.005,-0.00249018,-3.81595e-15,1.24587e-14,0,0,98.9915,0,0,0
600.444,-0.00287099,-0.00288887,0.00600444,-0.00299221,-1.282e-14,9.82991e-15,0,0,100.877,0,0,0
701,-0.00336825,-0.00339265,0.00701,-0.00349479,-1.35823e-14,1.59017e-14,0,0,102.739,0,0,0
801,-0.00386227,-0.00389415,0.00801,-0.0039946,-1.35499e-14,1.29353e-14,0,0,104.587,0,0,0
901,-0.00435578,-0.00439614,0.00901,-0.0044944,-1.05128e-14,1.00322e-14,0,0,106.446,0,0,0
1000.3,-0.00484535,-0.00489512,0.010003,-0.00499067,-1.66236e-14,6.52387e-15,0,0,108.265,0,0,0
1101,-0.0053414,-0.00540173,0.01101,-0.00549399,-1.27686e-14,-4.25954e-15,0,0,110.069,0,0,0
1200.44,-0.00583075,-0.00590249,0.0120044,-0.005991,-1.45303e-14,-3.76783e-15,0,0,111.858,0,0,0
1300.44,-0.00632236,-0.00640657,0.0130044,-0.00649078,-1.30136e-14,-5.73989e-15,0,0,113.637,0,0,0
1400.67,-0.00681459,-0.00691231,0.0140067,-0.00699168,-1.3629e-14,-1.17023e-14,0,0,115.387,0,0,0
1500.67,-0.00730525,-0.00741744,0.0150067,-0.00749145,-1.34349e-14,-1.39378e-14,0,0,117.12,0,0,0
1600.37,-0.00779398,-0.0079216,0.0160037,-0.00798974,-1.35502e-14,-1.76087e-14,0,0,118.835,0,0,0
1700.44,-0.00828406,-0.00842816,0.0170044,-0.00848988,-2.18944e-14,-3.07061e-14,0,0,120.524,0,0,0
1800.72,-0.00877465,-0.00893627,0.0180072,-0.008991,-5.91398e-14,-6.2206e-14,0,0,122.19,0,0,0
1900.25,-0.00926111,-0.00944111,0.0190025,-0.0094884,-1.72892e-13,-1.78207e-13,0,0,123.837,0,0,0
2001,-0.00975311,-0.00995272,0.02001,-0.00999191,-5.96703e-13,-6.14135e-13,0,0,125.451,0,0,0
2100.44,-0.0102382,-0.0104582,0.0210044,-0.0104889,-2.42678e-12,-2.4793e-12,0,0,127.05,0,0,0
2201,-0.0107283,-0.0109698,0.02201,-0.0109914,-1.17748e-11,-1.20298e-11,0,0,128.626,0,0,0
2300.8,-0.0112142,-0.0114782,0.023008,-0.0114901,-6.55664e-11,-6.70507e-11,0,0,130.177,0,0,0
2400.44,-0.0116989,-0.0119862,0.0240044,-0.011988,-6.4149e-10,-6.55274e-10,0,0,131.703,0,0,0
2501,-0.0121875,-0.0124995,0.02501,-0.0124905,-5.60921e-08,-5.74976e-08,0,0,133.211,0,0,0
2600.37,-0.0126699,-0.0130072,0.0260037,-0.012987,-6.38251e-06,-6.54909e-06,0,0,134.683,0,0,0
2700.44,-0.0131554,-0.0135191,0.0270044,-0.0134871,-0.000181433,-0.000186316,0,0,136.071,0,0,0
2800.44,-0.0136401,-0.0140313,0.0280044,-0.0139868,-0.000423204,-0.000434822,0,0,137.356,0,0,0
2900.25,-0.0141234,-0.014543,0.0290025,-0.0144855,-0.00066337,-0.000681925,0,0,138.59,0,0,0
3000.25,-0.0146073,-0.0150563,0.0300025,-0.0149851,-0.000902692,-0.000928405,0,0,139.775,0,0,0
3100.56,-0.0150921,-0.0155718,0.0310056,-0.0154863,-0.00114179,-0.0011749,0,0,140.917,0,0,0
3200,-0.0155724,-0.0160833,0.032,-0.0159832,-0.00137756,-0.00141821,0,0,142.013,0,0,0
3300,-0.0160549,-0.0165982,0.033,-0.0164828,-0.00161364,-0.00166208,0,0,143.069,0,0,0
3400,-0.0165369,-0.0171137,0.034,-0.0169824,-0.0018486,-0.00190504,0,0,144.073,0,0,0
3500,-0.0170185,-0.0176298,0.035,-0.017482,-0.00208239,-0.00214702,0,0,145.048,0,0,0
3600,-0.0174997,-0.0181464,0.036,-0.0179816,-0.00231503,-0.00238806,0,0,145.984,0,0,0
3700,-0.0179804,-0.0186635,0.037,-0.0184812,-0.00254652,-0.00262815,0,0,146.876,0,0,0
3800,-0.0184606,-0.0191812,0.038,-0.0189807,-0.00277685,-0.00286727,0,0,147.736,0,0,0
3900,-0.0189404,-0.0196994,0.039,-0.0194803,-0.00300602,-0.00310543,0,0,148.56,0,0,0
4000,-0.0194197,-0.0202182,0.04,-0.0199798,-0.00323403,-0.00334261,0,0,149.353,0,0,0
4100,-0.0198986,-0.0207375,0.041,-0.0204793,-0.00346088,-0.00357884,0,0,150.107,0,0,0
4200,-0.020377,-0.0212573,0.042,-0.0209788,-0.00368656,-0.00381407,0,0,150.834,0,0,0
4300,-0.0208549,-0.0217777,0.043,-0.0214782,-0.00391109,-0.00404833,0,0,151.524,0,0,0
4400,-0.0213324,-0.0222986,0.044,-0.0219777,-0.00413443,-0.00428159,0,0,152.194,0,0,0
4500,-0.0218094,-0.02282,0.045,-0.0224771,-0.00435661,-0.00451388,0,0,152.827,0,0,0
4600,-0.022286,-0.023342,0.046,-0.0229765,-0.00457762,-0.00474516,0,0,153.436,0,0,0
4700,-0.022762,-0.0238645,0.047,-0.0234759,-0.00479745,-0.00497545,0,0,154.02,0,0,0
4800,-0.0232377,-0.0243875,0.048,-0.0239752,-0.0050161,-0.00520472,0,0,154.58,0,0,0
4900,-0.0237128,-0.0249111,0.049,-0.0244745,-0.00523358,-0.00543301,0,0,155.11,0,0,0
5000,-0.0241875,-0.0254352,0.05,-0.0249739,-0.00544988,-0.00566027,0,0,155.621,0,0,0
5100,-0.0246617,-0.0259598,0.051,-0.0254731,-0.005665,-0.00588652,0,0,156.108,0,0,0
5200,-0.0251354,-0.0264849,0.052,-0.0259724,-0.00587894,-0.00611176,0,0,156.571,0,0,0
5300,-0.0256087,-0.0270106,0.053,-0.0264716,-0.00609168,-0.00633596,0,0,157.025,0,0,0
5400,-0.0260814,-0.0275368,0.054,-0.0269708,-0.00630324,-0.00655914,0,0,157.452,0,0,0
5500,-0.0265538,-0.0280635,0.055,-0.02747,-0.00651364,-0.0067813,0,0,157.853,0,0,0
5600,-0.0270256,-0.0285907,0.056,-0.0279692,-0.00672282,-0.00700242,0,0,158.247,0,0,0
5700,-0.0274969,-0.0291185,0.057,-0.0284683,-0.00693082,-0.00722249,0,0,158.626,0,0,0
5800,-0.0279678,-0.0296467,0.058,-0.0289674,-0.00713766,-0.00744157,0,0,158.962,0,0,0
5900,-0.0284382,-0.0301755,0.059,-0.0294665,-0.00734329,-0.00765958,0,0,159.3,0,0,0
6000,-0.0289081,-0.0307048,0.06,-0.0299655,-0.00754774,-0.00787654,0,0,159.618,0,0,0
6100,-0.0293776,-0.0312346,0.061,-0.0304645,-0.00775098,-0.00809246,0,0,159.924,0,0,0
6200,-0.0298465,-0.031765,0.062,-0.0309635,-0.00795302,-0.00830729,0,0,160.228,0,0,0
6300,-0.030315,-0.0322958,0.063,-0.0314625,-0.0081539,-0.00852112,0,0,160.495,0,0,0
6400,-0.030783,-0.0328272,0.064,-0.0319614,-0.00835357,-0.00873387,0,0,160.758,0,0,0
6500,-0.0312505,-0.0333591,0.065,-0.0324603,-0.00855204,-0.00894555,0,0,161.009,0,0,0
6600,-0.0317176,-0.0338914,0.066,-0.0329591,-0.00874931,-0.00915617,0,0,161.253,0,0,0
6700,-0.0321841,-0.0344243,0.067,-0.0334579,-0.0089454,-0.00936573,0,0,161.477,0,0,0
6800,-0.0326502,-0.0349578,0.068,-0.0339567,-0.0091403,-0.00957422,0,0,161.688,0,0,0
6900,-0.0331158,-0.0354917,0.069,-0.0344555,-0.00933399,-0.00978164,0,0,161.89,0,0,0
7000,-0.0335809,-0.0360261,0.07,-0.0349542,-0.00952649,-0.00998798,0,0,162.082,0,0,0
7100,-0.0340455,-0.0365611,0.071,-0.0354529,-0.00971779,-0.0101932,0,0,162.267,0,0,0
7200,-0.0345096,-0.0370965,0.072,-0.0359515,-0.00990789,-0.0103974,0,0,162.441,0,0,0
7300,-0.0349732,-0.0376325,0.073,-0.0364501,-0.0100968,-0.0106005,0,0,162.606,0,0,0
7400,-0.0354364,-0.0381689,0.074,-0.0369487,-0.0102845,-0.0108025,0,0,162.76,0,0,0
7500,-0.0358991,-0.0387059,0.075,-0.0374473,-0.010471,-0.0110034,0,0,162.906,0,0,0
7600,-0.0363613,-0.0392434,0.076,-0.0379458,-0.0106563,-0.0112032,0,0,163.043,0,0,0
7700,-0.036823,-0.0397814,0.077,-0.0384442,-0.0108404,-0.011402,0,0,163.17,0,0,0
7800,-0.0372842,-0.0403199,0.078,-0.0389426,-0.0110233,-0.0115996,0,0,163.294,0,0,0
7900,-0.0377449,-0.0408589,0.079,-0.039441,-0.011205,-0.0117961,0,0,163.409,0,0,0
8000,-0.0382051,-0.0413984,0.08,-0.0399394,-0.0113855,-0.0119916,0,0,163.517,0,0,0
8100,-0.0386649,-0.0419384,0.081,-0.0404377,-0.0115648,-0.0121859,0,0,163.619,0,0,0
8200,-0.0391241,-0.0424789,0.082,-0.0409359,-0.0117429,-0.0123791,0,0,163.715,0,0,0
8300,-0.0395829,-0.0430199,0.083,-0.0414341,-0.0119198,-0.0125712,0,0,163.804,0,0,0
8400,-0.0400412,-0.0435615,0.084,-0.0419323,-0.0120955,-0.0127622,0,0,163.887,0,0,0
8500,-0.040499,-0.0441035,0.085,-0.0424304,-0.01227,-0.012952,0,0,163.965,0,0,0
8600,-0.0409563,-0.044646,0.086,-0.0429285,-0.0124433,-0.0131408,0,0,164.036,0,0,0
8700,-0.0414131,-0.045189,0.087,-0.0434266,-0.0126154,-0.0133284,0,0,164.104,0,0,0
8800,-0.0418694,-0.0457326,0.088,-0.0439246,-0.0127863,-0.0135149,0,0,164.166,0,0,0
8900,-0.0423252,-0.0462766,0.089,-0.0444225,-0.012956,-0.0137003,0,0,164.224,0,0,0
9000,-0.0427806,-0.0468211,0.09,-0.0449204,-0.0131245,-0.0138845,0,0,164.277,0,0,0
9100,-0.0432354,-0.0473661,0.091,-0.0454183,-0.0132918,-0.0140676,0,0,164.326,0,0,0
9200,-0.0436898,-0.0479117,0.092,-0.0459161,-0.0134579,-0.0142496,0,0,164.37,0,0,0
9300,-0.0441436,-0.0484577,0.093,-0.0464139,-0.0136228,-0.0144305,0,0,164.411,0,0,0
9400,-0.044597,-0.0490042,0.094,-0.0469116,-0.0137865,-0.0146102,0,0,164.448,0,0,0
9500,-0.0450499,-0.0495513,0.095,-0.0474093,-0.0139489,-0.0147887,0,0,164.481,0,0,0
9600,-0.0455023,-0.0500988,0.096,-0.0479069,-0.0141102,-0.0149661,0,0,164.511,0,0,0
9700,-0.0459542,-0.0506468,0.097,-0.0484045,-0.0142703,-0.0151424,0,0,164.538,0,0,0
9800,-0.0464056,-0.0511953,0.098,-0.048902,-0.0144292,-0.0153175,0,0,164.561,0,0,0
9900,-0.0468566,-0.0517444,0.099,-0.0493995,-0.0145868,-0.0154915,0,0,164.581,0,0,0
10000,-0.047307,-0.0522939,0.1,-0.0498969,-0.0147433,-0.0156643,0,0,164.599,0,0,0
10100,-0.047757,-0.0528439,0.101,-0.0503943,-0.0148986,-0.0158359,0,0,164.614,0,0,0
10200,-0.0482064,-0.0533944,0.102,-0.0508916,-0.0150526,-0.0160064,0,0,164.626,0,0,0
10301,-0.0486599,-0.0539509,0.10301,-0.0513939,-0.015207,-0.0161774,0,0,164.636,0,0,0
10401,-0.0491083,-0.0545024,0.10401,-0.0518911,-0.0153587,-0.0163456,0,0,164.644,0,0,0
10500.7,-0.0495548,-0.0550526,0.105007,-0.0523866,-0.0155086,-0.016512,0,0,164.649,0,0,0
10601,-0.0500038,-0.0556069,0.10601,-0.0528854,-0.0156584,-0.0166784,0,0,164.652,0,0,0
10700.7,-0.0504493,-0.0561581,0.107007,-0.0533808,-0.0158059,-0.0168424,0,0,164.653,0,0,0
10800.3,-0.0508942,-0.0567095,0.108003,-0.053876,-0.0159522,-0.0170053,0,0,164.652,0,0,0
10900.3,-0.0513402,-0.0572635,0.109003,-0.0543729,-0.0160979,-0.0171676,0,0,164.649,0,0,0
11000.4,-0.0517864,-0.0578188,0.110004,-0.0548706,-0.0162425,-0.0173289,0,0,164.646,0,0,0
11100.6,-0.0522319,-0.0583744,0.111006,-0.055368,-0.0163859,-0.017489,0,0,164.638,0,0,0
11201,-0.0526784,-0.0589324,0.11201,-0.0558669,-0.0165286,-0.0176485,0,0,164.63,0,0,0
11300.7,-0.053121,-0.0594865,0.113007,-0.056362,-0.0166689,-0.0178055,0,0,164.62,0,0,0
11400.6,-0.0535641,-0.0600423,0.114006,-0.0568581,-0.0168084,-0.0179617,0,0,164.609,0,0,0
11500.4,-0.0540067,-0.0605987,0.115004,-0.0573542,-0.0169467,-0.0181167,0,0,164.597,0,0,0
11600.4,-0.0544493,-0.0611561,0.116004,-0.0578508,-0.0170839,-0.0182707,0,0,164.582,0,0,0
11701,-0.0548938,-0.0617171,0.11701,-0.05835,-0.0172207,-0.0184243,0,0,164.568,0,0,0
11800.4,-0.055333,-0.0622725,0.118004,-0.0588437,-0.0173548,-0.018575,0,0,164.552,0,0,0
11901,-0.0557765,-0.0628345,0.11901,-0.0593428,-0.0174891,-0.0187262,0,0,164.535,0,0,0
12001,-0.0562172,-0.0633939,0.12001,-0.0598391,-0.0176216,-0.0188754,0,0,164.516,0,0,0
12101,-0.0566573,-0.0639538,0.12101,-0.0603354,-0.0177528,-0.0190233,0,0,164.497,0,0,0
12201,-0.057097,-0.0645142,0.12201,-0.0608316,-0.0178828,-0.01917,0,0,164.477,0,0,0
12301,-0.0575361,-0.0650751,0.12301,-0.0613277,-0.0180116,-0.0193155,0,0,164.456,0,0,0
12400.7,-0.0579734,-0.0656347,0.124007,-0.0618222,-0.0181388,-0.0194594,0,0,164.434,0,0,0
12500.7,-0.0584115,-0.0661965,0.125007,-0.0623182,-0.0182652,-0.0196025,0,0,164.411,0,0,0
12600.2,-0.0588471,-0.0667562,0.126002,-0.0628117,-0.0183898,-0.0197436,0,0,164.388,0,0,0
12700.3,-0.0592848,-0.0673196,0.127003,-0.0633082,-0.018514,-0.0198844,0,0,164.363,0,0,0
12800.7,-0.0597231,-0.0678851,0.128007,-0.0638058,-0.0186373,-0.0200244,0,0,164.339,0,0,0
12900.3,-0.0601577,-0.0684468,0.129003,-0.0642997,-0.0187584,-0.020162,0,0,164.314,0,0,0
13000.7,-0.0605951,-0.0690132,0.130007,-0.0647973,-0.0188793,-0.0202995,0,0,164.288,0,0,0
13100.7,-0.0610303,-0.069578,0.131007,-0.0652929,-0.0189985,-0.0204352,0,0,164.261,0,0,0
13201,-0.0614665,-0.0701452,0.13201,-0.0657901,-0.0191169,-0.0205702,0,0,164.234,0,0,0
13301,-0.0619008,-0.070711,0.13301,-0.0662856,-0.0192337,-0.0207034,0,0,164.207,0,0,0
13401,-0.0623346,-0.0712773,0.13401,-0.066781,-0.0193493,-0.0208354,0,0,164.179,0,0,0
13500.6,-0.062766,-0.0718416,0.135006,-0.0672742,-0.0194632,-0.0209655,0,0,164.151,0,0,0
13600.6,-0.0631988,-0.0724088,0.136006,-0.0677694,-0.0195764,-0.021095,0,0,164.122,0,0,0
13701,-0.0636331,-0.0729791,0.13701,-0.0682669,-0.0196889,-0.0212238,0,0,164.093,0,0,0
13801,-0.0640649,-0.0735473,0.13801,-0.068762,-0.0197997,-0.0213508,0,0,164.064,0,0,0
13901,-0.0644963,-0.074116,0.13901,-0.0692571,-0.0199093,-0.0214766,0,0,164.035,0,0,0
14001,-0.0649271,-0.0746852,0.14001,-0.0697521,-0.0200177,-0.021601,0,0,164.005,0,0,0
14100.7,-0.0653561,-0.075253,0.141007,-0.0702454,-0.0201246,-0.0217238,0,0,163.975,0,0,0
14200.7,-0.065786,-0.0758232,0.142007,-0.0707403,-0.0202306,-0.0218458,0,0,163.945,0,0,0
14301,-0.0662168,-0.0763957,0.14301,-0.0712367,-0.0203357,-0.0219668,0,0,163.915,0,0,0
14401,-0.0666458,-0.0769669,0.14401,-0.0717315,-0.0204393,-0.0220862,0,0,163.885,0,0,0
14501,-0.0670742,-0.0775385,0.14501,-0.0722261,-0.0205417,-0.0222043,0,0,163.854,0,0,0
14601,-0.0675022,-0.0781106,0.14601,-0.0727207,-0.0206429,-0.0223212,0,0,163.824,0,0,0
14701,-0.0679297,-0.0786832,0.14701,-0.0732152,-0.0207429,-0.0224367,0,0,163.793,0,0,0
14800,-0.0683524,-0.0792505,0.148,-0.0737047,-0.0208408,-0.0225499,0,0,163.762,0,0,0
14900,-0.0687789,-0.0798241,0.149,-0.0741991,-0.0209384,-0.0226629,0,0,163.732,0,0,0
15000,-0.0692049,-0.0803981,0.15,-0.0746934,-0.0210348,-0.0227746,0,0,163.701,0,0,0
15100,-0.0696305,-0.0809726,0.151,-0.0751876,-0.02113,-0.022885,0,0,163.671,0,0,0
15200,-0.0700556,-0.0815477,0.152,-0.0756817,-0.021224,-0.0229942,0,0,163.64,0,0,0
15300.7,-0.070483,-0.082127,0.153007,-0.0761791,-0.0213174,-0.0231027,0,0,163.61,0,0,0
15400.7,-0.0709071,-0.082703,0.154007,-0.0766731,-0.021409,-0.0232092,0,0,163.579,0,0,0
15500.7,-0.0713307,-0.0832794,0.155007,-0.077167,-0.0214994,-0.0233145,0,0,163.549,0,0,0
15600.7,-0.0717538,-0.0838564,0.156007,-0.0776608,-0.0215886,-0.0234184,0,0,163.519,0,0,0
15700.7,-0.0721764,-0.0844338,0.157007,-0.0781546,-0.0216766,-0.023521,0,0,163.488,0,0,0
15800.7,-0.0725986,-0.0850117,0.158007,-0.0786483,-0.0217634,-0.0236223,0,0,163.458,0,0,0
15900.3,-0.0730187,-0.085588,0.159003,-0.07914,-0.0218487,-0.0237219,0,0,163.429,0,0,0
16001,-0.0734429,-0.0861709,0.16001,-0.079637,-0.0219337,-0.0238213,0,0,163.399,0,0,0
16100.7,-0.0738622,-0.0867484,0.161007,-0.0801288,-0.0220166,-0.0239183,0,0,163.369,0,0,0
16201,-0.0742838,-0.0873301,0.16201,-0.0806239,-0.0220988,-0.0240146,0,0,163.34,0,0,0
16301,-0.0747036,-0.0879104,0.16301,-0.0811171,-0.0221796,-0.0241093,0,0,163.311,0,0,0
16401,-0.0751229,-0.0884912,0.16401,-0.0816103,-0.0222592,-0.0242026,0,0,163.282,0,0,0
16501,-0.0755417,-0.0890725,0.16501,-0.0821035,-0.0223376,-0.0242947,0,0,163.253,0,0,0
16601,-0.07596,-0.0896542,0.16601,-0.0825965,-0.0224148,-0.0243853,0,0,163.225,0,0,0
16701,-0.0763778,-0.0902365,0.16701,-0.0830895,-0.0224908,-0.0244747,0,0,163.197,0,0,0
16801,-0.0767952,-0.0908192,0.16801,-0.0835823,-0.0225656,-0.0245627,0,0,163.169,0,0,0
16901,-0.0772121,-0.0914023,0.16901,-0.0840751,-0.0226391,-0.0246493,0,0,163.141,0,0,0
17001,-0.0776285,-0.091986,0.17001,-0.0845679,-0.0227115,-0.0247346,0,0,163.114,0,0,0
17100,-0.0780403,-0.0925643,0.171,-0.0850556,-0.022782,-0.0248177,0,0,163.087,0,0,0
17200,-0.0784558,-0.0931488,0.172,-0.0855481,-0.022852,-0.0249003,0,0,163.06,0,0,0
17300,-0.0788708,-0.0937339,0.173,-0.0860406,-0.0229208,-0.0249815,0,0,163.034,0,0,0
17400,-0.0792853,-0.0943195,0.174,-0.0865329,-0.0229884,-0.0250614,0,0,163.007,0,0,0
17500,-0.0796993,-0.0949055,0.175,-0.0870252,-0.0230548,-0.0251399,0,0,162.982,0,0,0
17600,-0.0801129,-0.095492,0.176,-0.0875174,-0.0231199,-0.0252171,0,0,162.956,0,0,0
17700,-0.080526,-0.0960789,0.177,-0.0880096,-0.0231839,-0.0252928,0,0,162.931,0,0,0
17800,-0.0809386,-0.0966664,0.178,-0.0885016,-0.0232467,-0.0253672,0,0,162.906,0,0,0
17900,-0.0813508,-0.0972543,0.179,-0.0889935,-0.0233083,-0.0254402,0,0,162.881,0,0,0
18000,-0.0817624,-0.0978427,0.18,-0.0894854,-0.0233686,-0.0255119,0,0,162.857,0,0,0
18100,-0.0821736,-0.0984315,0.181,-0.0899772,-0.0234278,-0.0255821,0,0,162.834,0,0,0
18200,-0.0825843,-0.0990209,0.182,-0.0904689,-0.0234858,-0.0256509,0,0,162.81,0,0,0
18300,-0.0829946,-0.0996107,0.183,-0.0909605,-0.0235425,-0.0257184,0,0,162.788,0,0,0
18400,-0.0834044,-0.100201,0.184,-0.091452,-0.0235981,-0.0257845,0,0,162.765,0,0,0
18500,-0.0838137,-0.100792,0.185,-0.0919434,-0.0236524,-0.0258491,0,0,162.743,0,0,0
18600,-0.0842225,-0.101383,0.186,-0.0924347,-0.0237056,-0.0259124,0,0,162.721,0,0,0
18700,-0.0846309,-0.101975,0.187,-0.092926,-0.0237575,-0.0259742,0,0,162.7,0,0,0
18800,-0.0850388,-0.102567,0.188,-0.0934171,-0.0238082,-0.0260347,0,0,162.679,0,0,0
18900,-0.0854462,-0.103159,0.189,-0.0939082,-0.0238578,-0.0260937,0,0,162.658,0,0,0
19000,-0.0858532,-0.103752,0.19,-0.0943991,-0.0239061,-0.0261513,0,0,162.638,0,0,0
19100,-0.0862597,-0.104346,0.191,-0.09489,-0.0239532,-0.0262075,0,0,162.619,0,0,0
19200,-0.0866657,-0.10494,0.192,-0.0953808,-0.0239991,-0.0262623,0,0,162.6,0,0,0
19300,-0.0870712,-0.105535,0.193,-0.0958715,-0.0240438,-0.0263156,0,0,162.581,0,0,0
19400,-0.0874763,-0.10613,0.194,-0.0963621,-0.0240873,-0.0263675,0,0,162.563,0,0,0
19500,-0.0878809,-0.106725,0.195,-0.0968526,-0.0241296,-0.026418,0,0,162.545,0,0,0
19600,-0.088285,-0.107321,0.196,-0.097343,-0.0241706,-0.026467,0,0,162.528,0,0,0
19700,-0.0886887,-0.107917,0.197,-0.0978333,-0.0242105,-0.0265146,0,0,162.511,0,0,0
19800,-0.0890919,-0.108514,0.198,-0.0983235,-0.0242492,-0.0265607,0,0,162.494,0,0,0
19900,-0.0894947,-0.109111,0.199,-0.0988136,-0.0242866,-0.0266054,0,0,162.479,0,0,0
20000,-0.0898969,-0.109709,0.2,-0.0993037,-0.0243228,-0.0266486,0,0,162.463,0,0,0
20100,-0.0902987,-0.110307,0.201,-0.0997936,-0.0243579,-0.0266904,0,0,162.448,0,0,0
20200,-0.0907001,-0.110906,0.202,-0.100283,-0.0243917,-0.0267307,0,0,162.434,0,0,0
20300,-0.091101,-0.111505,0.203,-0.100773,-0.0244243,-0.0267696,0,0,162.42,0,0,0
20400,-0.0915014,-0.112105,0.204,-0.101263,-0.0244557,-0.026807,0,0,162.406,0,0,0
20500,-0.0919013,-0.112705,0.205,-0.101752,-0.0244858,-0.0268429,0,0,162.394,0,0,0
20600,-0.0923008,-0.113305,0.206,-0.102242,-0.0245148,-0.0268773,0,0,162.381,0,0,0
20700,-0.0926998,-0.113906,0.207,-0.102731,-0.0245425,-0.0269103,0,0,162.369,0,0,0
20800,-0.0930984,-0.114508,0.208,-0.10322,-0.0245691,-0.0269418,0,0,162.358,0,0,0
20900,-0.0934964,-0.11511,0.209,-0.10371,-0.0245944,-0.0269718,0,0,162.347,0,0,0
21000,-0.0938941,-0.115712,0.21,-0.104199,-0.0246185,-0.0270003,0,0,162.337,0,0,0
21100,-0.0942912,-0.116315,0.211,-0.104688,-0.0246414,-0.0270273,0,0,162.328,0,0,0
21200,-0.0946879,-0.116918,0.212,-0.105176,-0.024663,-0.0270528,0,0,162.318,0,0,0
21300,-0.0950842,-0.117522,0.213,-0.105665,-0.0246835,-0.0270768,0,0,162.31,0,0,0
21400,-0.0954799,-0.118127,0.214,-0.106154,-0.0247027,-0.0270993,0,0,162.302,0,0,0
21500,-0.0958753,-0.118731,0.215,-0.106642,-0.0247207,-0.0271203,0,0,162.294,0,0,0
21600,-0.0962701,-0.119336,0.216,-0.107131,-0.0247375,-0.0271397,0,0,162.287,0,0,0
21700,-0.0966645,-0.119942,0.217,-0.107619,-0.0247531,-0.0271577,0,0,162.281,0,0,0
21800,-0.0970584,-0.120548,0.218,-0.108107,-0.0247674,-0.0271741,0,0,162.275,0,0,0
21900,-0.0974519,-0.121155,0.219,-0.108596,-0.0247805,-0.027189,0,0,162.27,0,0,0
22000,-0.0978449,-0.121762,0.22,-0.109084,-0.0247924,-0.0272024,0,0,162.266,0,0,0
22100,-0.0982374,-0.122369,0.221,-0.109571,-0.0248031,-0.0272143,0,0,162.262,0,0,0
22200,-0.0986295,-0.122977,0.222,-0.110059,-0.0248125,-0.0272246,0,0,162.259,0,0,0
22300,-0.0990211,-0.123585,0.223,-0.110547,-0.0248208,-0.0272333,0,0,162.256,0,0,0
22400,-0.0994123,-0.124194,0.224,-0.111035,-0.0248278,-0.0272405,0,0,162.254,0,0,0
22500,-0.099803,-0.124804,0.225,-0.111522,-0.0248335,-0.0272462,0,0,162.252,0,0,0
22600,-0.100193,-0.125413,0.226,-0.11201,-0.0248381,-0.0272503,0,0,162.251,0,0,0
22700,-0.100583,-0.126024,0.227,-0.112497,-0.0248414,-0.0272529,0,0,162.251,0,0,0
22800,-0.100972,-0.126634,0.228,-0.112984,-0.0248435,-0.0272538,0,0,162.251,0,0,0
22900,-0.101361,-0.127245,0.229,-0.113471,-0.0248443,-0.0272533,0,0,162.252,0,0,0
23000,-0.10175,-0.127857,0.23,-0.113958,-0.0248439,-0.0272511,0,0,162.254,0,0,0
23100,-0.102138,-0.128469,0.231,-0.114445,-0.0248423,-0.0272474,0,0,162.256,0,0,0
23200,-0.102525,-0.129081,0.232,-0.114932,-0.0248394,-0.0272421,0,0,162.259,0,0,0
23300,-0.102912,-0.129694,0.233,-0.115418,-0.0248354,-0.0272352,0,0,162.262,0,0,0
23400,-0.103299,-0.130308,0.234,-0.115905,-0.02483,-0.0272267,0,0,162.266,0,0,0
23500,-0.103685,-0.130922,0.235,-0.116391,-0.0248235,-0.0272166,0,0,162.271,0,0,0
23600,-0.104071,-0.131536,0.236,-0.116878,-0.0248157,-0.0272049,0,0,162.276,0,0,0
23700,-0.104456,-0.132151,0.237,-0.117364,-0.0248066,-0.0271916,0,0,162.283,0,0,0
23800,-0.104841,-0.132766,0.238,-0.11785,-0.0247964,-0.0271767,0,0,162.289,0,0,0
23900,-0.105225,-0.133382,0.239,-0.118336,-0.0247848,-0.0271602,0,0,162.297,0,0,0
24000,-0.105609,-0.133998,0.24,-0.118822,-0.0247721,-0.0271421,0,0,162.305,0,0,0
24100,-0.105992,-0.134614,0.241,-0.119307,-0.0247581,-0.0271224,0,0,162.314,0,0,0
24200,-0.106375,-0.135231,0.242,-0.119793,-0.0247428,-0.027101,0,0,162.324,0,0,0
24300,-0.106758,-0.135849,0.243,-0.120279,-0.0247263,-0.027078,0,0,162.334,0,0,0
24400,-0.10714,-0.136467,0.244,-0.120764,-0.0247086,-0.0270534,0,0,162.344,0,0,0
24500,-0.107521,-0.137085,0.245,-0.121249,-0.0246896,-0.0270271,0,0,162.356,0,0,0
24600,-0.107902,-0.137704,0.246,-0.121735,-0.0246693,-0.0269992,0,0,162.369,0,0,0
24700,-0.108283,-0.138323,0.247,-0.12222,-0.0246478,-0.0269696,0,0,162.381,0,0,0
24800,-0.108663,-0.138943,0.248,-0.122705,-0.0246251,-0.0269384,0,0,162.396,0,0,0
24900,-0.109043,-0.139563,0.249,-0.123189,-0.0246011,-0.0269055,0,0,162.41,0,0,0
25000,-0.109422,-0.140184,0.25,-0.123674,-0.0245759,-0.026871,0,0,162.425,0,0,0
25100,-0.109801,-0.140805,0.251,-0.124159,-0.0245493,-0.0268347,0,0,162.441,0,0,0
25200,-0.11018,-0.141427,0.252,-0.124643,-0.0245216,-0.0267968,0,0,162.458,0,0,0
25300,-0.110558,-0.142049,0.253,-0.125128,-0.0244925,-0.0267573,0,0,162.476,0,0,0
25400,-0.110935,-0.142671,0.254,-0.125612,-0.0244623,-0.026716,0,0,162.494,0,0,0
25500,-0.111312,-0.143294,0.255,-0.126096,-0.0244307,-0.0266731,0,0,162.513,0,0,0
25600,-0.111689,-0.143917,0.256,-0.12658,-0.0243979,-0.0266285,0,0,162.532,0,0,0
25700,-0.112065,-0.144541,0.257,-0.127064,-0.0243638,-0.0265821,0,0,162.553,0,0,0
25800,-0.112441,-0.145165,0.258,-0.127548,-0.0243285,-0.0265341,0,0,162.574,0,0,0
25900,-0.112816,-0.14579,0.259,-0.128031,-0.0242919,-0.0264844,0,0,162.596,0,0,0
26000,-0.113191,-0.146415,0.26,-0.128515,-0.024254,-0.0264329,0,0,162.619,0,0,0
26100,-0.113565,-0.147041,0.261,-0.128998,-0.0242149,-0.0263797,0,0,162.643,0,0,0
26200,-0.113939,-0.147667,0.262,-0.129482,-0.0241745,-0.0263248,0,0,162.667,0,0,0
26300,-0.114312,-0.148293,0.263,-0.129965,-0.0241328,-0.0262682,0,0,162.692,0,0,0
26400,-0.114685,-0.14892,0.264,-0.130448,-0.0240898,-0.0262098,0,0,162.718,0,0,0
26500,-0.115058,-0.149547,0.265,-0.130931,-0.0240456,-0.0261497,0,0,162.745,0,0,0
26600,-0.11543,-0.150175,0.266,-0.131414,-0.024,-0.0260878,0,0,162.773,0,0,0
26700,-0.115802,-0.150803,0.267,-0.131896,-0.0239532,-0.0260242,0,0,162.802,0,0,0
26800,-0.116173,-0.151432,0.268,-0.132379,-0.0239052,-0.0259589,0,0,162.83,0,0,0
26900,-0.116544,-0.152061,0.269,-0.132861,-0.0238558,-0.0258917,0,0,162.861,0,0,0
27000,-0.116914,-0.152691,0.27,-0.133344,-0.0238051,-0.0258228,0,0,162.892,0,0,0
27100,-0.117284,-0.153321,0.271,-0.133826,-0.0237532,-0.0257522,0,0,162.924,0,0,0
27200,-0.117653,-0.153951,0.272,-0.134308,-0.0237,-0.0256797,0,0,162.956,0,0,0
27300,-0.118022,-0.154582,0.273,-0.13479,-0.0236455,-0.0256055,0,0,162.99,0,0,0
27400,-0.118391,-0.155214,0.274,-0.135272,-0.0235896,-0.0255295,0,0,163.024,0,0,0
27500,-0.118759,-0.155845,0.275,-0.135754,-0.0235325,-0.0254516,0,0,163.06,0,0,0
27600,-0.119127,-0.156478,0.276,-0.136235,-0.0234741,-0.025372,0,0,163.096,0,0,0
27700,-0.119494,-0.15711,0.277,-0.136717,-0.0234145,-0.0252906,0,0,163.133,0,0,0
27800,-0.119861,-0.157744,0.278,-0.137198,-0.0233535,-0.0252073,0,0,163.171,0,0,0
27900,-0.120227,-0.158377,0.279,-0.137679,-0.0232912,-0.0251222,0,0,163.21,0,0,0
28000,-0.120593,-0.159011,0.28,-0.13816,-0.0232276,-0.0250354,0,0,163.25,0,0,0
28100,-0.120958,-0.159646,0.281,-0.138641,-0.0231627,-0.0249466,0,0,163.29,0,0,0
28200,-0.121323,-0.160281,0.282,-0.139122,-0.0230964,-0.0248561,0,0,163.333,0,0,0
28300,-0.121688,-0.160916,0.283,-0.139603,-0.0230289,-0.0247636,0,0,163.375,0,0,0
28400,-0.122052,-0.161552,0.284,-0.140083,-0.0229601,-0.0246694,0,0,163.419,0,0,0
28500,-0.122416,-0.162188,0.285,-0.140563,-0.0228899,-0.0245733,0,0,163.463,0,0,0
28600,-0.122779,-0.162825,0.286,-0.141044,-0.0228185,-0.0244753,0,0,163.509,0,0,0
28700,-0.123142,-0.163462,0.287,-0.141524,-0.0227457,-0.0243754,0,0,163.555,0,0,0
28800,-0.123504,-0.164099,0.288,-0.142004,-0.0226716,-0.0242737,0,0,163.602,0,0,0
28900,-0.123866,-0.164737,0.289,-0.142484,-0.0225962,-0.0241701,0,0,163.651,0,0,0
29000,-0.124227,-0.165376,0.29,-0.142964,-0.0225194,-0.0240646,0,0,163.7,0,0,0
29100,-0.124588,-0.166015,0.291,-0.143443,-0.0224413,-0.0239572,0,0,163.75,0,0,0
29200,-0.124949,-0.166654,0.292,-0.143923,-0.0223619,-0.0238479,0,0,163.801,0,0,0
29300,-0.125309,-0.167294,0.293,-0.144402,-0.0222812,-0.0237367,0,0,163.854,0,0,0
29400,-0.125669,-0.167934,0.294,-0.144881,-0.0221991,-0.0236235,0,0,163.908,0,0,0
29500,-0.126028,-0.168574,0.295,-0.14536,-0.0221157,-0.0235085,0,0,163.962,0,0,0
29600,-0.126387,-0.169215,0.296,-0.145839,-0.022031,-0.0233915,0,0,164.017,0,0,0
29700,-0.126745,-0.169857,0.297,-0.146318,-0.0219449,-0.0232726,0,0,164.074,0,0,0
29800,-0.127103,-0.170499,0.298,-0.146797,-0.0218575,-0.0231518,0,0,164.131,0,0,0
29900,-0.127461,-0.171141,0.299,-0.147275,-0.0217687,-0.0230289,0,0,164.189,0,0,0
30000,-0.127818,-0.171784,0.3,-0.147754,-0.0216786,-0.0229042,0,0,164.25,0,0,0
30100,-0.128174,-0.172427,0.301,-0.148232,-0.0215871,-0.0227775,0,0,164.31,0,0,0
30200,-0.12853,-0.173071,0.302,-0.14871,-0.0214943,-0.0226488,0,0,164.372,0,0,0
30300,-0.128886,-0.173715,0.303,-0.149188,-0.0214001,-0.0225181,0,0,164.434,0,0,0
30400,-0.129242,-0.17436,0.304,-0.149666,-0.0213046,-0.0223854,0,0,164.498,0,0,0
30500,-0.129596,-0.175005,0.305,-0.150144,-0.0212077,-0.0222507,0,0,164.563,0,0,0
30600,-0.129951,-0.17565,0.306,-0.150621,-0.0211095,-0.0221141,0,0,164.63,0,0,0
30700,-0.130305,-0.176296,0.307,-0.151099,-0.0210098,-0.0219754,0,0,164.698,0,0,0
30800,-0.130658,-0.176942,0.308,-0.151576,-0.0209089,-0.0218347,0,0,164.766,0,0,0
30900,-0.131012,-0.177589,0.309,-0.152053,-0.0208065,-0.021692,0,0,164.836,0,0,0
31000,-0.131364,-0.178236,0.31,-0.15253,-0.0207027,-0.0215473,0,0,164.907,0,0,0
31100,-0.131716,-0.178884,0.311,-0.153007,-0.0205976,-0.0214005,0,0,164.979,0,0,0
31200,-0.132068,-0.179532,0.312,-0.153484,-0.0204911,-0.0212517,0,0,165.052,0,0,0
31300,-0.13242,-0.18018,0.313,-0.153961,-0.0203833,-0.0211008,0,0,165.126,0,0,0
31400,-0.132771,-0.180829,0.314,-0.154437,-0.020274,-0.0209479,0,0,165.202,0,0,0
31500,-0.133121,-0.181478,0.315,-0.154913,-0.0201633,-0.0207929,0,0,165.279,0,0,0
31600,-0.133471,-0.182128,0.316,-0.15539,-0.0200513,-0.0206358,0,0,165.357,0,0,0
31700,-0.133821,-0.182778,0.317,-0.155866,-0.0199379,-0.0204766,0,0,165.436,0,0,0
31800,-0.13417,-0.183429,0.318,-0.156342,-0.019823,-0.0203153,0,0,165.516,0,0,0
31900,-0.134519,-0.18408,0.319,-0.156817,-0.0197068,-0.020152,0,0,165.599,0,0,0
32000,-0.134867,-0.184731,0.32,-0.157293,-0.0195891,-0.0199865,0,0,165.682,0,0,0
32100,-0.135215,-0.185383,0.321,-0.157768,-0.0194701,-0.0198189,0,0,165.766,0,0,0
32200,-0.135563,-0.186035,0.322,-0.158244,-0.0193496,-0.0196492,0,0,165.852,0,0,0
32300,-0.13591,-0.186688,0.323,-0.158719,-0.0192277,-0.0194773,0,0,165.939,0,0,0
32400,-0.136256,-0.187341,0.324,-0.159194,-0.0191044,-0.0193033,0,0,166.027,0,0,0
32500,-0.136603,-0.187995,0.325,-0.159669,-0.0189797,-0.0191271,0,0,166.117,0,0,0
32600,-0.136948,-0.188649,0.326,-0.160144,-0.0188536,-0.0189488,0,0,166.208,0,0,0
32700,-0.137294,-0.189303,0.327,-0.160618,-0.018726,-0.0187683,0,0,166.299,0,0,0
32800,-0.137639,-0.189958,0.328,-0.161093,-0.018597,-0.0185856,0,0,166.394,0,0,0
32900,-0.137983,-0.190613,0.329,-0.161567,-0.0184665,-0.0184007,0,0,166.489,0,0,0
33000,-0.138327,-0.191269,0.33,-0.162041,-0.0183347,-0.0182137,0,0,166.586,0,0,0
33100,-0.138671,-0.191925,0.331,-0.162515,-0.0182013,-0.0180244,0,0,166.684,0,0,0
33200,-0.139014,-0.192581,0.332,-0.162989,-0.0180666,-0.0178329,0,0,166.783,0,0,0
33300,-0.139357,-0.193238,0.333,-0.163463,-0.0179304,-0.0176392,0,0,166.884,0,0,0
33400,-0.139699,-0.193896,0.334,-0.163936,-0.0177927,-0.0174432,0,0,166.986,0,0,0
33500,-0.140041,-0.194554,0.335,-0.16441,-0.0176536,-0.017245,0,0,167.09,0,0,0
33600,-0.140383,-0.195212,0.336,-0.164883,-0.017513,-0.0170445,0,0,167.195,0,0,0
33700,-0.140724,-0.195871,0.337,-0.165356,-0.0173709,-0.0168418,0,0,167.302,0,0,0
33800,-0.141064,-0.19653,0.338,-0.165829,-0.0172274,-0.0166368,0,0,167.411,0,0,0
33900,-0.141405,-0.197189,0.339,-0.166302,-0.0170824,-0.0164295,0,0,167.52,0,0,0
34000,-0.141744,-0.197849,0.34,-0.166774,-0.0169359,-0.01622,0,0,167.631,0,0,0
34100,-0.142084,-0.198509,0.341,-0.167247,-0.0167879,-0.0160081,0,0,167.744,0,0,0
34200,-0.142423,-0.19917,0.342,-0.167719,-0.0166385,-0.0157939,0,0,167.858,0,0,0
34300,-0.142761,-0.199831,0.343,-0.168191,-0.0164875,-0.0155773,0,0,167.975,0,0,0
34400,-0.143099,-0.200493,0.344,-0.168664,-0.0163351,-0.0153585,0,0,168.091,0,0,0
34500,-0.143437,-0.201155,0.345,-0.169135,-0.0161812,-0.0151373,0,0,168.211,0,0,0
34600,-0.143774,-0.201817,0.346,-0.169607,-0.0160257,-0.0149137,0,0,168.333,0,0,0
34700,-0.144111,-0.20248,0.347,-0.170079,-0.0158688,-0.0146878,0,0,168.456,0,0,0
34800,-0.144448,-0.203144,0.348,-0.17055,-0.0157103,-0.0144594,0,0,168.58,0,0,0
34900,-0.144784,-0.203807,0.349,-0.171021,-0.0155503,-0.0142287,0,0,168.705,0,0,0
35000,-0.145119,-0.204471,0.35,-0.171493,-0.0153888,-0.0139956,0,0,168.833,0,0,0
35100,-0.145454,-0.205136,0.351,-0.171964,-0.0152258,-0.0137601,0,0,168.962,0,0,0
35200,-0.145789,-0.205801,0.352,-0.172434,-0.0150613,-0.0135222,0,0,169.094,0,0,0
35300,-0.146124,-0.206466,0.353,-0.172905,-0.0148952,-0.0132818,0,0,169.225,0,0,0
35400,-0.146457,-0.207132,0.354,-0.173376,-0.0147275,-0.013039,0,0,169.361,0,0,0
35500,-0.146791,-0.207798,0.355,-0.173846,-0.0145583,-0.0127937,0,0,169.499,0,0,0
35600,-0.147124,-0.208465,0.356,-0.174316,-0.0143876,-0.0125459,0,0,169.636,0,0,0
35700,-0.147457,-0.209132,0.357,-0.174786,-0.0142153,-0.0122957,0,0,169.776,0,0,0
35800,-0.147789,-0.209799,0.358,-0.175256,-0.0140415,-0.0120429,0,0,169.918,0,0,0
35900,-0.148121,-0.210467,0.359,-0.175726,-0.0138661,-0.0117877,0,0,170.063,0,0,0
36000,-0.148452,-0.211135,0.36,-0.176195,-0.0136891,-0.0115299,0,0,170.208,0,0,0
36100,-0.148783,-0.211804,0.361,-0.176665,-0.0135105,-0.0112697,0,0,170.356,0,0,0
36200,-0.149114,-0.212473,0.362,-0.177134,-0.0133303,-0.0110068,0,0,170.506,0,0,0
36300,-0.149444,-0.213142,0.363,-0.177603,-0.0131486,-0.0107414,0,0,170.657,0,0,0
36400,-0.149774,-0.213812,0.364,-0.178072,-0.0129653,-0.0104735,0,0,170.811,0,0,0
36500,-0.150103,-0.214483,0.365,-0.178541,-0.0127803,-0.0102029,0,0,170.967,0,0,0
36600,-0.150432,-0.215153,0.366,-0.179009,-0.0125938,-0.00992979,0,0,171.125,0,0,0
36700,-0.15076,-0.215824,0.367,-0.179478,-0.0124056,-0.00965404,0,0,171.285,0,0,0
36800,-0.151088,-0.216496,0.368,-0.179946,-0.0122159,-0.00937567,0,0,171.446,0,0,0
36900,-0.151416,-0.217168,0.369,-0.180414,-0.0120245,-0.00909467,0,0,171.611,0,0,0
37000,-0.151743,-0.21784,0.37,-0.180882,-0.0118315,-0.00881101,0,0,171.777,0,0,0
37100,-0.15207,-0.218513,0.371,-0.18135,-0.0116368,-0.00852469,0,0,171.945,0,0,0
37200,-0.152397,-0.219186,0.372,-0.181817,-0.0114405,-0.0082357,0,0,172.117,0,0,0
37300,-0.152723,-0.219859,0.373,-0.182285,-0.0112426,-0.00794401,0,0,172.29,0,0,0
37400,-0.153048,-0.220533,0.374,-0.182752,-0.011043,-0.00764962,0,0,172.464,0,0,0
37500,-0.153374,-0.221208,0.375,-0.183219,-0.0108417,-0.0073525,0,0,172.643,0,0,0
37600,-0.153698,-0.221882,0.376,-0.183686,-0.0106388,-0.00705265,0,0,172.821,0,0,0
37700,-0.154023,-0.222558,0.377,-0.184153,-0.0104342,-0.00675005,0,0,173.004,0,0,0
37800,-0.154347,-0.223233,0.378,-0.18462,-0.0102279,-0.00644469,0,0,173.188,0,0,0
37900,-0.15467,-0.223909,0.379,-0.185086,-0.0100199,-0.00613654,0,0,173.375,0,0,0
38000,-0.154994,-0.224585,0.38,-0.185552,-0.00981022,-0.0058256,0,0,173.564,0,0,0
38100,-0.155316,-0.225262,0.381,-0.186019,-0.00959884,-0.00551185,0,0,173.755,0,0,0
38200,-0.155639,-0.225939,0.382,-0.186485,-0.00938576,-0.00519527,0,0,173.949,0,0,0
38300,-0.155961,-0.226617,0.383,-0.18695,-0.00917096,-0.00487584,0,0,174.146,0,0,0
38400,-0.156282,-0.227295,0.384,-0.187416,-0.00895444,-0.00455356,0,0,174.345,0,0,0
38500,-0.156604,-0.227973,0.385,-0.187881,-0.00873618,-0.0042284,0,0,174.547,0,0,0
38600,-0.156924,-0.228652,0.386,-0.188347,-0.00851619,-0.00390035,0,0,174.75,0,0,0
38700,-0.157245,-0.229331,0.387,-0.188812,-0.00829445,-0.00356939,0,0,174.959,0,0,0
38800,-0.157565,-0.230011,0.388,-0.189277,-0.00807095,-0.0032355,0,0,175.169,0,0,0
38900,-0.157884,-0.230691,0.389,-0.189742,-0.0078457,-0.00289867,0,0,175.38,0,0,0
39000,-0.158203,-0.231371,0.39,-0.190206,-0.00761867,-0.00255888,0,0,175.596,0,0,0
39100,-0.158522,-0.232052,0.391,-0.190671,-0.00738986,-0.00221611,0,0,175.813,0,0,0
39200,-0.158841,-0.232733,0.392,-0.191135,-0.00715927,-0.00187034,0,0,176.034,0,0,0
39300,-0.159158,-0.233414,0.393,-0.191599,-0.00692688,-0.00152156,0,0,176.258,0,0,0
39400,-0.159476,-0.234096,0.394,-0.192063,-0.00669269,-0.00116975,0,0,176.484,0,0,0
39500,-0.159793,-0.234778,0.395,-0.192527,-0.00645668,-0.000814888,0,0,176.713,0,0,0
39600,-0.16011,-0.235461,0.396,-0.19299,-0.00621886,-0.000456955,0,0,176.945,0,0,0
39700,-0.160426,-0.236144,0.397,-0.193454,-0.0059792,-9.5935e-05,0,0,177.182,0,0,0
39800,-0.160742,-0.236827,0.398,-0.193917,-0.00573771,0.000268194,0,0,177.421,0,0,0
39900,-0.161058,-0.237511,0.399,-0.19438,-0.00549436,0.000635451,0,0,177.661,0,0,0
40000,-0.161373,-0.238195,0.4,-0.194843,-0.00524916,0.00100585,0,0,177.906,0,0,0
40100,-0.161688,-0.23888,0.401,-0.195306,-0.00500209,0.00137942,0,0,178.155,0,0,0
40200,-0.162002,-0.239565,0.402,-0.195768,-0.00475314,0.00175618,0,0,178.405,0,0,0
40300,-0.162316,-0.24025,0.403,-0.196231,-0.00450231,0.00213615,0,0,178.661,0,0,0
40400,-0.16263,-0.240936,0.404,-0.196693,-0.00424958,0.00251934,0,0,178.92,0,0,0
40500,-0.162943,-0.241622,0.405,-0.197155,-0.00399495,0.00290578,0,0,179.18,0,0,0
40600,-0.163256,-0.242309,0.406,-0.197617,-0.00373839,0.0032955,0,0,179.444,0,0,0
40700,-0.163568,-0.242996,0.407,-0.198079,-0.00347991,0.0036885,0,0,179.712,0,0,0
40800,-0.163881,-0.243683,0.408,-0.19854,-0.00321949,0.00408482,0,0,179.985,0,0,0
40900,-0.164192,-0.244371,0.409,-0.199001,-0.00295712,0.00448448,0,0,180.26,0,0,0
41000,-0.164503,-0.245059,0.41,-0.199463,-0.00269279,0.0048875,0,0,180.538,0,0,0
41100,-0.164814,-0.245747,0.411,-0.199924,-0.00242649,0.00529389,0,0,180.824,0,0,0
41200,-0.165125,-0.246436,0.412,-0.200384,-0.00215821,0.0057037,0,0,181.107,0,0,0
41300,-0.165435,-0.247125,0.413,-0.200845,-0.00188793,0.00611693,0,0,181.398,0,0,0
41400,-0.165745,-0.247815,0.414,-0.201305,-0.00161565,0.00653361,0,0,181.692,0,0,0
41500,-0.166054,-0.248505,0.415,-0.201766,-0.00134135,0.00695377,0,0,181.991,0,0,0
41600,-0.166363,-0.249195,0.416,-0.202226,-0.00106502,0.00737744,0,0,182.292,0,0,0
41700,-0.166672,-0.249886,0.417,-0.202686,-0.000786655,0.00780462,0,0,182.599,0,0,0
41800,-0.16698,-0.250577,0.418,-0.203145,-0.000506232,0.00823537,0,0,182.909,0,0,0
41900,-0.167288,-0.251268,0.419,-0.203605,-0.000223743,0.00866968,0,0,183.223,0,0,0
42000,-0.167595,-0.25196,0.42,-0.204064,6.0824e-05,0.0091076,0,0,183.542,0,0,0
42100,-0.167902,-0.252652,0.421,-0.204524,0.000347484,0.00954916,0,0,183.865,0,0,0
42200,-0.168209,-0.253345,0.422,-0.204983,0.00063625,0.00999436,0,0,184.192,0,0,0
42300,-0.168515,-0.254038,0.423,-0.205441,0.000927133,0.0104433,0,0,184.524,0,0,0
42400,-0.168821,-0.254731,0.424,-0.2059,0.00122015,0.0108959,0,0,184.858,0,0,0
42500,-0.169126,-0.255425,0.425,-0.206358,0.00151531,0.0113522,0,0,185.2,0,0,0
42600,-0.169432,-0.256119,0.426,-0.206817,0.00181263,0.0118123,0,0,185.549,0,0,0
42700,-0.169736,-0.256813,0.427,-0.207275,0.00211213,0.0122762,0,0,185.897,0,0,0
42800,-0.170041,-0.257508,0.428,-0.207733,0.00241381,0.012744,0,0,186.251,0,0,0
42900,-0.170345,-0.258203,0.429,-0.20819,0.0027177,0.0132156,0,0,186.612,0,0,0
43000,-0.170648,-0.258898,0.43,-0.208648,0.00302381,0.013691,0,0,186.977,0,0,0
43100,-0.170952,-0.259594,0.431,-0.209105,0.00333215,0.0141704,0,0,187.347,0,0,0
43200,-0.171255,-0.26029,0.432,-0.209562,0.00364275,0.0146538,0,0,187.721,0,0,0
43300,-0.171557,-0.260987,0.433,-0.210019,0.00395561,0.0151411,0,0,188.104,0,0,0
43400,-0.171859,-0.261684,0.434,-0.210476,0.00427075,0.0156325,0,0,188.489,0,0,0
43500,-0.172161,-0.262381,0.435,-0.210933,0.0045882,0.0161278,0,0,188.88,0,0,0
43600,-0.172462,-0.263079,0.436,-0.211389,0.00490796,0.0166273,0,0,189.276,0,0,0
43700,-0.172763,-0.263777,0.437,-0.211845,0.00523005,0.0171309,0,0,189.681,0,0,0
43800,-0.173064,-0.264475,0.438,-0.212301,0.00555449,0.0176386,0,0,190.087,0,0,0
43900,-0.173364,-0.265174,0.439,-0.212757,0.0058813,0.0181505,0,0,190.502,0,0,0
44000,-0.173664,-0.265873,0.44,-0.213213,0.0062105,0.0186666,0,0,190.922,0,0,0
44100,-0.173964,-0.266572,0.441,-0.213668,0.0065421,0.019187,0,0,191.35,0,0,0
44200,-0.174263,-0.267272,0.442,-0.214123,0.00687613,0.0197117,0,0,191.781,0,0,0
44300,-0.174562,-0.267972,0.443,-0.214578,0.0072126,0.0202407,0,0,192.22,0,0,0
44400,-0.17486,-0.268672,0.444,-0.215033,0.00755154,0.0207741,0,0,192.665,0,0,0
44500,-0.175159,-0.269373,0.445,-0.215488,0.00789295,0.0213119,0,0,193.117,0,0,0
44600,-0.175456,-0.270074,0.446,-0.215942,0.00823687,0.0218541,0,0,193.575,0,0,0
44700,-0.175754,-0.270776,0.447,-0.216397,0.00858331,0.0224008,0,0,194.04,0,0,0
44800,-0.176051,-0.271478,0.448,-0.216851,0.0089323,0.022952,0,0,194.512,0,0,0
44900,-0.176347,-0.27218,0.449,-0.217305,0.00928385,0.0235079,0,0,194.992,0,0,0
45000,-0.176644,-0.272882,0.45,-0.217758,0.00963799,0.0240683,0,0,195.478,0,0,0
45100,-0.17694,-0.273585,0.451,-0.218212,0.00999474,0.0246334,0,0,195.971,0,0,0
45200,-0.177235,-0.274288,0.452,-0.218665,0.0103541,0.0252031,0,0,196.472,0,0,0
45300,-0.17753,-0.274992,0.453,-0.219118,0.0107162,0.0257777,0,0,196.982,0,0,0
45400,-0.177825,-0.275696,0.454,-0.219571,0.0110809,0.026357,0,0,197.499,0,0,0
45500,-0.17812,-0.2764,0.455,-0.220024,0.0114483,0.0269411,0,0,198.023,0,0,0
45600,-0.178414,-0.277105,0.456,-0.220476,0.0118184,0.0275302,0,0,198.557,0,0,0
45700,-0.178708,-0.277809,0.457,-0.220929,0.0121913,0.0281241,0,0,199.097,0,0,0
45800,-0.179001,-0.278515,0.458,-0.221381,0.012567,0.0287231,0,0,199.647,0,0,0
45900,-0.179294,-0.27922,0.459,-0.221833,0.0129455,0.0293271,0,0,200.204,0,0,0
46000,-0.179587,-0.279926,0.46,-0.222284,0.0133268,0.0299362,0,0,200.772,0,0,0
46100,-0.17988,-0.280632,0.461,-0.222736,0.013711,0.0305504,0,0,201.348,0,0,0
46200,-0.180172,-0.281339,0.462,-0.223187,0.0140981,0.0311698,0,0,201.934,0,0,0
46300,-0.180463,-0.282045,0.463,-0.223638,0.0144881,0.0317944,0,0,202.527,0,0,0
46400,-0.180755,-0.282753,0.464,-0.224089,0.014881,0.0324244,0,0,203.133,0,0,0
46500,-0.181046,-0.28346,0.465,-0.224539,0.0152769,0.0330597,0,0,203.746,0,0,0
46600,-0.181337,-0.284168,0.466,-0.22499,0.0156758,0.0337004,0,0,204.371,0,0,0
46700,-0.181627,-0.284876,0.467,-0.22544,0.0160777,0.0343466,0,0,205.006,0,0,0
46800,-0.181917,-0.285584,0.468,-0.22589,0.0164828,0.0349984,0,0,205.651,0,0,0
46900,-0.182207,-0.286293,0.469,-0.22634,0.0168909,0.0356557,0,0,206.308,0,0,0
47000,-0.182496,-0.287002,0.47,-0.226789,0.0173021,0.0363187,0,0,206.974,0,0,0
47100,-0.182785,-0.287711,0.471,-0.227239,0.0177165,0.0369874,0,0,207.653,0,0,0
47200,-0.183074,-0.288421,0.472,-0.227688,0.0181342,0.0376619,0,0,208.344,0,0,0
47300,-0.183362,-0.289131,0.473,-0.228137,0.018555,0.0383423,0,0,209.045,0,0,0
47400,-0.18365,-0.289841,0.474,-0.228586,0.0189792,0.0390286,0,0,209.759,0,0,0
47500,-0.183938,-0.290552,0.475,-0.229034,0.0194066,0.0397209,0,0,210.486,0,0,0
47600,-0.184225,-0.291263,0.476,-0.229482,0.0198374,0.0404193,0,0,211.23,0,0,0
47700,-0.184512,-0.291974,0.477,-0.22993,0.0202716,0.0411239,0,0,211.977,0,0,0
47800,-0.184799,-0.292685,0.478,-0.230378,0.0207092,0.0418346,0,0,212.744,0,0,0
47900,-0.185085,-0.293397,0.479,-0.230826,0.0211503,0.0425517,0,0,213.524,0,0,0
48000,-0.185371,-0.294109,0.48,-0.231273,0.0215949,0.0432751,0,0,214.323,0,0,0
48100,-0.185657,-0.294822,0.481,-0.23172,0.0220431,0.044005,0,0,215.124,0,0,0
48200,-0.185942,-0.295534,0.482,-0.232167,0.0224949,0.0447414,0,0,215.948,0,0,0
48300,-0.186227,-0.296247,0.483,-0.232614,0.0229503,0.0454845,0,0,216.786,0,0,0
48400,-0.186512,-0.29696,0.484,-0.23306,0.0234094,0.0462342,0,0,217.64,0,0,0
48500,-0.186796,-0.297674,0.485,-0.233506,0.0238723,0.0469908,0,0,218.509,0,0,0
48600,-0.187081,-0.298387,0.486,-0.233952,0.0243389,0.0477543,0,0,219.402,0,0,0
48700,-0.187364,-0.299101,0.487,-0.234398,0.0248094,0.0485248,0,0,220.3,0,0,0
48800,-0.187648,-0.299816,0.488,-0.234844,0.0252837,0.0493023,0,0,221.221,0,0,0
48900,-0.187931,-0.30053,0.489,-0.235289,0.0257621,0.050087,0,0,222.167,0,0,0
49000,-0.188214,-0.301245,0.49,-0.235734,0.0262444,0.0508791,0,0,223.118,0,0,0
49100,-0.188496,-0.30196,0.491,-0.236179,0.0267308,0.0516785,0,0,224.095,0,0,0
49200,-0.188779,-0.302675,0.492,-0.236623,0.0272213,0.0524854,0,0,225.094,0,0,0
49300,-0.189061,-0.303391,0.493,-0.237067,0.0277159,0.0532999,0,0,226.117,0,0,0
49400,-0.189342,-0.304107,0.494,-0.237511,0.0282148,0.0541222,0,0,227.152,0,0,0
49500,-0.189623,-0.304823,0.495,-0.237955,0.0287181,0.0549522,0,0,228.211,0,0,0
49600,-0.189904,-0.30554,0.496,-0.238398,0.0292257,0.0557903,0,0,229.284,0,0,0
49700,-0.190185,-0.306256,0.497,-0.238841,0.0297377,0.0566364,0,0,230.395,0,0,0
49800,-0.190465,-0.306973,0.498,-0.239284,0.0302542,0.0574907,0,0,231.525,0,0,0
49900,-0.190746,-0.30769,0.499,-0.239727,0.0307753,0.0583533,0,0,232.673,0,0,0
50000,-0.191025,-0.308408,0.5,-0.240169,0.031301,0.0592245,0,0,233.846,0,0,0
